     Program PWSCF v.7.4 starts on  6Jan2025 at 11:57:57
        Git branch: develop
        Last git commit: e877ff360aceba4b8d76ffc2fb1c70545fc5dd57
        Last git commit date: Sat Jan 4 12:56:15 2025 +0000
        Last git commit subject: Merge branch 'orthoU' into 'develop'

     Reading input from espresso.pwi
Warning: card &CELL ignored
Warning: card    PRESS_CONV_THR   = 0.1 ignored
Warning: card    CELL_DOFREE      = 'ALL' ignored
Warning: card / ignored
Warning: card &FCP ignored
Warning: card / ignored
Warning: card &RISM ignored
Warning: card / ignored

     Current dimensions of program PWSCF are:
     Max number of different atomic species (ntypx) = 10
     Max number of k-points (npk) =  40000
     Max angular momentum in pseudopotentials (lmaxx) =  4

     IMPORTANT: XC functional enforced from input :
     Exchange-correlation= PBE
                           (   1   4   3   4   0   0   0)
     Any further DFT definition will be discarded
     Please, verify this is what you really want

     Reading input from environ.in:
     * using ionic solvent mode
     * setting boundary derivatives method to SSCS default
     * setting electrolyte-boundary derivatives method to SSCS default

Environ Warning (1001): card EOF ignored

     Found identity + (  0.0000  0.5000  0.0000) symmetry
     This is a supercell, fractional translations are disabled

     K-points division:     npool     =       2
     R & G space division:  proc/nbgrp/npool/nimage =     180
     Subspace diagonalization in iterative solution of the eigenvalue problem:
     a serial algorithm will be used

     Using Slab Decomposition

     bravais-lattice index     =            6
     lattice parameter (alat)  =      12.9830  a.u.
     unit-cell volume          =   16640.2915 (a.u.)^3
     number of atoms/cell      =           32
     number of atomic types    =            1
     number of electrons       =        96.00
     number of Kohn-Sham states=           72
     kinetic-energy cutoff     =      80.0000  Ry
     charge density cutoff     =     800.0000  Ry
     scf convergence threshold =      1.0E-06
     mixing beta               =       0.2000
     number of iterations used =            8  local-TF  mixing
     energy convergence thresh.=      1.0E-05
     force convergence thresh. =      3.9E-04
     Exchange-correlation= PBE
                           (   1   4   3   4   0   0   0)
     nstep                     =          999

                                  Environ Setup Summary

          O. Andreussi, I. Dabo and N. Marzari, J. Chem. Phys. 136, 064102 (2012)
          F. Nattino, M. Truscott, N. Marzari, and O. Andreussi, J. Chem. Phys. 150, 041722 (2019)

     in publications or presentations arising from this work.

     Parameters

     compensation onset threshold      =               0.1000E+00
     static permittivity               =                    89.90
     surface tension in input (dyn/cm) =                    37.30
     surface tension in internal units =               0.4792E-04

     Solvent Boundary

     solvent mode                      =                    ionic
     derivatives method                =                   lowmem
     electrolyte derivatives method    =                   lowmem
     numerical core for derivatives    =                      fft
     switching function adopted        =                     SCCS
     density limit for vacuum region   =               0.5000E-02
     density limit for bulk solvent    =               0.1000E-03
     soft-sphere radius mode           =                    bondi
     soft-sphere softness              =                     0.50
     alpha                             =                     1.32

     Electrostatic Setup

     electrostatic problem to solve    =                    modpb
     numerical solver adopted          =                   newton
     type of auxiliary density adopted =                     none
     numerical core for poisson        =                      fft
     adopting a nested solver scheme
     inner solver                      =                       cg
     inner core                        =                      fft
     type of pbc corrections           =                parabolic
     numerical core for corrections    =                      1da

     >>>>> Grand-Canonical SCF is activated <<<<<
     Initial Total Charge  =     0.000000 e
     Target Fermi Energy   =    -4.404000 eV
     Thr. of Fermi Energy  =     0.001000 eV
     Wave-shift of Kerker  =     0.400000 bohr^-1
     Wave-shift of Hartree =     1.500000 bohr^-1
     Mixing Rate of Fermi  =     0.050000

     celldm(1)=  12.983009  celldm(2)=   0.000000  celldm(3)=   7.603873
     celldm(4)=   0.000000  celldm(5)=   0.000000  celldm(6)=   0.000000

     crystal axes: (cart. coord. in units of alat)
               a(1) = (   1.000000   0.000000   0.000000 )
               a(2) = (   0.000000   1.000000   0.000000 )
               a(3) = (   0.000000   0.000000   7.603873 )

     reciprocal axes: (cart. coord. in units 2 pi/alat)
               b(1) = (  1.000000  0.000000  0.000000 )
               b(2) = (  0.000000  1.000000  0.000000 )
               b(3) = (  0.000000  0.000000  0.131512 )

     PseudoPot. # 1 for Li read from file:
     /home/mmm1182/Repos/Pseudopotentials/pslibrary/Li.pbe-sl-kjpaw_psl.1.0.0.UPF
     MD5 check sum: f40bb4162937df3f7c561f1969c76545
     Pseudo is Projector augmented-wave, Zval =  3.0
     Generated using 'atomic' code by A. Dal Corso  v.7.3.1
     Shape of augmentation charge: PSQ
     Using radial grid of 1017 points,  4 beta functions with:
                l(1) =   0
                l(2) =   0
                l(3) =   1
                l(4) =   1
     Q(r) pseudized with 0 coefficients

     atomic species   valence    mass     pseudopotential
     Li                3.00     6.94000     Li( 1.00)

      8 Sym. Ops. (no inversion) found

                                    s                        frac. trans.

      isym =  1     identity

 cryst.   s( 1) = (     1          0          0      )
                  (     0          1          0      )
                  (     0          0          1      )

 cart.    s( 1) = (  1.0000000  0.0000000  0.0000000 )
                  (  0.0000000  1.0000000  0.0000000 )
                  (  0.0000000  0.0000000  1.0000000 )

      isym =  2     180 deg rotation - cart. axis [0,0,1]

[...]

      isym =  4      90 deg rotation - cart. axis [0,0,1]

[...]

      isym =  5     inv. 180 deg rotation - cart. axis [0,1,0]

[...]

      isym =  8     inv. 180 deg rotation - cart. axis [1,-1,0]

 cryst.   s( 8) = (     0          1          0      )
                  (     1          0          0      )
                  (     0          0          1      )

 cart.    s( 8) = (  0.0000000  1.0000000  0.0000000 )
                  (  1.0000000  0.0000000  0.0000000 )
                  (  0.0000000  0.0000000  1.0000000 )

     point group C_4v (4mm)
     there are  5 classes
     the character table:

       E     2C4   C2    2s_v  2s_d
A_1    1.00  1.00  1.00  1.00  1.00
A_2    1.00  1.00  1.00 -1.00 -1.00
B_1    1.00 -1.00  1.00  1.00 -1.00
B_2    1.00 -1.00  1.00 -1.00  1.00
E      2.00  0.00 -2.00  0.00  0.00

     the symmetry operations in each class and the name of the first element:

     E        1
          identity
     2C4      3    4
           90 deg rotation - cart. axis [0,0,-1]
     C2       2
          180 deg rotation - cart. axis [0,0,1]
     2s_v     5    6
          inv. 180 deg rotation - cart. axis [0,1,0]
     2s_d     7    8
          inv. 180 deg rotation - cart. axis [1,1,0]

   Cartesian axes

     site n.     atom                  positions (alat units)
         1        Li     tau(   1) = (  -0.0000000  -0.0000000   3.1730457  )
         2        Li     tau(   2) = (   0.2500001   0.2500001   2.8883756  )
         3        Li     tau(   3) = (  -0.0000000  -0.0000000   3.6713052  )
         4        Li     tau(   4) = (   0.2499993   0.2499993   3.4180170  )
         5        Li     tau(   5) = (  -0.0000000  -0.0000000   4.1858720  )
         6        Li     tau(   6) = (   0.2500014   0.2500014   3.9325897  )
         7        Li     tau(   7) = (  -0.0000000  -0.0000000   4.7155140  )
         8        Li     tau(   8) = (   0.2499982   0.2499982   4.4308442  )
         9        Li     tau(   9) = (  -0.0000000   0.5000000   3.1730465  )
        10        Li     tau(  10) = (   0.2500001   0.7499999   2.8883756  )
        11        Li     tau(  11) = (  -0.0000000   0.5000000   3.6713036  )
        12        Li     tau(  12) = (   0.2499993   0.7500007   3.4180170  )
        13        Li     tau(  13) = (  -0.0000000   0.5000000   4.1858763  )
        14        Li     tau(  14) = (   0.2500014   0.7499986   3.9325897  )
        15        Li     tau(  15) = (  -0.0000000   0.5000000   4.7155107  )
        16        Li     tau(  16) = (   0.2499982   0.7500018   4.4308442  )
        17        Li     tau(  17) = (   0.5000000  -0.0000000   3.1730465  )
        18        Li     tau(  18) = (   0.7499999   0.2500001   2.8883756  )
        19        Li     tau(  19) = (   0.5000000  -0.0000000   3.6713036  )
        20        Li     tau(  20) = (   0.7500007   0.2499993   3.4180170  )
        21        Li     tau(  21) = (   0.5000000  -0.0000000   4.1858763  )
        22        Li     tau(  22) = (   0.7499986   0.2500014   3.9325897  )
        23        Li     tau(  23) = (   0.5000000  -0.0000000   4.7155107  )
        24        Li     tau(  24) = (   0.7500018   0.2499982   4.4308442  )
        25        Li     tau(  25) = (   0.5000000   0.5000000   3.1730475  )
        26        Li     tau(  26) = (   0.7499999   0.7499999   2.8883756  )
        27        Li     tau(  27) = (   0.5000000   0.5000000   3.6713018  )
        28        Li     tau(  28) = (   0.7500007   0.7500007   3.4180170  )
        29        Li     tau(  29) = (   0.5000000   0.5000000   4.1858803  )
        30        Li     tau(  30) = (   0.7499986   0.7499986   3.9325897  )
        31        Li     tau(  31) = (   0.5000000   0.5000000   4.7155069  )
        32        Li     tau(  32) = (   0.7500018   0.7500018   4.4308442  )

   Crystallographic axes

     site n.     atom                  positions (cryst. coord.)
         1        Li     tau(   1) = ( -0.0000000 -0.0000000  0.4172934  )
         2        Li     tau(   2) = (  0.2500001  0.2500001  0.3798559  )
         3        Li     tau(   3) = ( -0.0000000 -0.0000000  0.4828204  )
         4        Li     tau(   4) = (  0.2499993  0.2499993  0.4495100  )
         5        Li     tau(   5) = ( -0.0000000 -0.0000000  0.5504921  )
         6        Li     tau(   6) = (  0.2500014  0.2500014  0.5171825  )
         7        Li     tau(   7) = ( -0.0000000 -0.0000000  0.6201463  )
         8        Li     tau(   8) = (  0.2499982  0.2499982  0.5827089  )
         9        Li     tau(   9) = ( -0.0000000  0.5000000  0.4172935  )
        10        Li     tau(  10) = (  0.2500001  0.7499999  0.3798559  )
        11        Li     tau(  11) = ( -0.0000000  0.5000000  0.4828202  )
[...]
     atom   14 type  1   force =    -0.00000010    0.00000010   -0.00631628
     atom   15 type  1   force =     0.00000000    0.00000000    0.08498062
     atom   16 type  1   force =     0.00000035   -0.00000035    0.00390591
     atom   17 type  1   force =     0.00000000    0.00000000   -0.00390190
     atom   18 type  1   force =    -0.00000013    0.00000013   -0.08496016
     atom   19 type  1   force =     0.00000000    0.00000000    0.00630132
     atom   20 type  1   force =    -0.00000004    0.00000004   -0.00488826
     atom   21 type  1   force =     0.00000000    0.00000000    0.00488063
     atom   22 type  1   force =     0.00000010   -0.00000010   -0.00631628
     atom   23 type  1   force =     0.00000000    0.00000000    0.08498062
     atom   24 type  1   force =    -0.00000035    0.00000035    0.00390591
     atom   25 type  1   force =     0.00000000    0.00000000   -0.00390162
     atom   26 type  1   force =    -0.00000013   -0.00000013   -0.08496016
     atom   27 type  1   force =     0.00000000    0.00000000    0.00630090
     atom   28 type  1   force =    -0.00000004   -0.00000004   -0.00488826
     atom   29 type  1   force =     0.00000000    0.00000000    0.00488128
     atom   30 type  1   force =     0.00000010    0.00000010   -0.00631628
     atom   31 type  1   force =     0.00000000    0.00000000    0.08498001
     atom   32 type  1   force =    -0.00000035   -0.00000035    0.00390591
     The ionic contribution  to forces
     atom    1 type  1   force =    -0.00000001   -0.00000001   -9.74629253
     atom    2 type  1   force =     0.00000122    0.00000122  -13.38618064
     atom    3 type  1   force =    -0.00000001   -0.00000001   -1.96509573
     atom    4 type  1   force =     0.00000069    0.00000069   -5.92194623
     atom    5 type  1   force =    -0.00000000   -0.00000000    5.92173035
     atom    6 type  1   force =    -0.00000314   -0.00000314    1.96475139
     atom    7 type  1   force =    -0.00000001   -0.00000001   13.38664686
     atom    8 type  1   force =     0.00001156    0.00001156    9.74636483
     atom    9 type  1   force =    -0.00000001    0.00000001   -9.74628656
     atom   10 type  1   force =     0.00000122   -0.00000122  -13.38618061
     atom   11 type  1   force =    -0.00000001    0.00000001   -1.96512195
     atom   12 type  1   force =     0.00000069   -0.00000069   -5.92194625
     atom   13 type  1   force =    -0.00000000   -0.00000000    5.92182118
     atom   14 type  1   force =    -0.00000314    0.00000315    1.96475138
     atom   15 type  1   force =    -0.00000001    0.00000001   13.38660223
     atom   16 type  1   force =     0.00001156   -0.00001156    9.74636486
     atom   17 type  1   force =     0.00000001   -0.00000001   -9.74628656
     atom   18 type  1   force =    -0.00000122    0.00000122  -13.38618061
     atom   19 type  1   force =     0.00000001   -0.00000001   -1.96512195
     atom   20 type  1   force =    -0.00000069    0.00000069   -5.92194625
     atom   21 type  1   force =    -0.00000000   -0.00000000    5.92182118
     atom   22 type  1   force =     0.00000315   -0.00000314    1.96475138
     atom   23 type  1   force =     0.00000001   -0.00000001   13.38660223
     atom   24 type  1   force =    -0.00001156    0.00001156    9.74636486
     atom   25 type  1   force =     0.00000001    0.00000001   -9.74628417
     atom   26 type  1   force =    -0.00000122   -0.00000122  -13.38618060
     atom   27 type  1   force =     0.00000001    0.00000001   -1.96514711
     atom   28 type  1   force =    -0.00000069   -0.00000069   -5.92194626
     atom   29 type  1   force =    -0.00000000   -0.00000000    5.92191036
     atom   30 type  1   force =     0.00000315    0.00000315    1.96475137
     atom   31 type  1   force =     0.00000001    0.00000001   13.38654466
     atom   32 type  1   force =    -0.00001156   -0.00001156    9.74636487
     The local contribution  to forces
     atom    1 type  1   force =     0.00000407    0.00000407    9.83175664
     atom    2 type  1   force =     0.00000329    0.00000329   13.53515362
     atom    3 type  1   force =     0.00000407    0.00000407    1.97526772
     atom    4 type  1   force =     0.00000400    0.00000400    5.97652152
     atom    5 type  1   force =     0.00000407    0.00000407   -5.97627160
     atom    6 type  1   force =     0.00000749    0.00000749   -1.97489245
     atom    7 type  1   force =     0.00000350    0.00000350  -13.53560877
     atom    8 type  1   force =    -0.00000761   -0.00000761   -9.83180843
     atom    9 type  1   force =     0.00000407    0.00000499    9.83175047
     atom   10 type  1   force =     0.00000329    0.00000613   13.53515243
     atom   11 type  1   force =     0.00000407    0.00000441    1.97529417
     atom   12 type  1   force =     0.00000400    0.00000540    5.97652212
     atom   13 type  1   force =     0.00000407    0.00000383   -5.97636367
     atom   14 type  1   force =     0.00000749    0.00000133   -1.97489245
     atom   15 type  1   force =     0.00000350    0.00000442  -13.53556583
     atom   16 type  1   force =    -0.00000761    0.00001642   -9.83180904
     atom   17 type  1   force =     0.00000499    0.00000407    9.83175047
     atom   18 type  1   force =     0.00000613    0.00000329   13.53515243
     atom   19 type  1   force =     0.00000441    0.00000407    1.97529417
     atom   20 type  1   force =     0.00000540    0.00000400    5.97652212
     atom   21 type  1   force =     0.00000383    0.00000407   -5.97636367
     atom   22 type  1   force =     0.00000133    0.00000749   -1.97489245
     atom   23 type  1   force =     0.00000442    0.00000350  -13.53556583
     atom   24 type  1   force =     0.00001642   -0.00000761   -9.83180904
     atom   25 type  1   force =     0.00000499    0.00000499    9.83174799
     atom   26 type  1   force =     0.00000613    0.00000613   13.53515184
     atom   27 type  1   force =     0.00000441    0.00000441    1.97531966
     atom   28 type  1   force =     0.00000540    0.00000540    5.97652212
     atom   29 type  1   force =     0.00000383    0.00000383   -5.97645371
     atom   30 type  1   force =     0.00000133    0.00000133   -1.97489245
     atom   31 type  1   force =     0.00000442    0.00000442  -13.53551089
     atom   32 type  1   force =     0.00001642    0.00001642   -9.83180904
     The core correction contribution to forces
     atom    1 type  1   force =     0.00000000    0.00000000    0.00000000
     atom    2 type  1   force =     0.00000000    0.00000000    0.00000000
     atom    3 type  1   force =     0.00000000    0.00000000    0.00000000
     atom    4 type  1   force =     0.00000000    0.00000000    0.00000000
     atom    5 type  1   force =     0.00000000    0.00000000    0.00000000
     atom    6 type  1   force =     0.00000000    0.00000000    0.00000000
     atom    7 type  1   force =     0.00000000    0.00000000    0.00000000
     atom    8 type  1   force =     0.00000000    0.00000000    0.00000000
     atom    9 type  1   force =     0.00000000    0.00000000    0.00000000
     atom   10 type  1   force =     0.00000000    0.00000000    0.00000000
     atom   11 type  1   force =     0.00000000    0.00000000    0.00000000
     atom   12 type  1   force =     0.00000000    0.00000000    0.00000000
     atom   13 type  1   force =     0.00000000    0.00000000    0.00000000
     atom   14 type  1   force =     0.00000000    0.00000000    0.00000000
     atom   15 type  1   force =     0.00000000    0.00000000    0.00000000
     atom   16 type  1   force =     0.00000000    0.00000000    0.00000000
     atom   17 type  1   force =     0.00000000    0.00000000    0.00000000
     atom   18 type  1   force =     0.00000000    0.00000000    0.00000000
     atom   19 type  1   force =     0.00000000    0.00000000    0.00000000
     atom   20 type  1   force =     0.00000000    0.00000000    0.00000000
     atom   21 type  1   force =     0.00000000    0.00000000    0.00000000
     atom   22 type  1   force =     0.00000000    0.00000000    0.00000000
     atom   23 type  1   force =     0.00000000    0.00000000    0.00000000
     atom   24 type  1   force =     0.00000000    0.00000000    0.00000000
     atom   25 type  1   force =     0.00000000    0.00000000    0.00000000
     atom   26 type  1   force =     0.00000000    0.00000000    0.00000000
     atom   27 type  1   force =     0.00000000    0.00000000    0.00000000
     atom   28 type  1   force =     0.00000000    0.00000000    0.00000000
     atom   29 type  1   force =     0.00000000    0.00000000    0.00000000
     atom   30 type  1   force =     0.00000000    0.00000000    0.00000000
     atom   31 type  1   force =     0.00000000    0.00000000    0.00000000
     atom   32 type  1   force =     0.00000000    0.00000000    0.00000000
     The Hubbard contrib.    to forces
     atom    1 type  1   force =     0.00000000    0.00000000    0.00000000
     atom    2 type  1   force =     0.00000000    0.00000000    0.00000000
     atom    3 type  1   force =     0.00000000    0.00000000    0.00000000
     atom    4 type  1   force =     0.00000000    0.00000000    0.00000000
     atom    5 type  1   force =     0.00000000    0.00000000    0.00000000
     atom    6 type  1   force =     0.00000000    0.00000000    0.00000000
     atom    7 type  1   force =     0.00000000    0.00000000    0.00000000
     atom    8 type  1   force =     0.00000000    0.00000000    0.00000000
     atom    9 type  1   force =     0.00000000    0.00000000    0.00000000
     atom   10 type  1   force =     0.00000000    0.00000000    0.00000000
     atom   11 type  1   force =     0.00000000    0.00000000    0.00000000
     atom   12 type  1   force =     0.00000000    0.00000000    0.00000000
     atom   13 type  1   force =     0.00000000    0.00000000    0.00000000
     atom   14 type  1   force =     0.00000000    0.00000000    0.00000000
     atom   15 type  1   force =     0.00000000    0.00000000    0.00000000
     atom   16 type  1   force =     0.00000000    0.00000000    0.00000000
     atom   17 type  1   force =     0.00000000    0.00000000    0.00000000
     atom   18 type  1   force =     0.00000000    0.00000000    0.00000000
     atom   19 type  1   force =     0.00000000    0.00000000    0.00000000
     atom   20 type  1   force =     0.00000000    0.00000000    0.00000000
     atom   21 type  1   force =     0.00000000    0.00000000    0.00000000
     atom   22 type  1   force =     0.00000000    0.00000000    0.00000000
     atom   23 type  1   force =     0.00000000    0.00000000    0.00000000
     atom   24 type  1   force =     0.00000000    0.00000000    0.00000000
     atom   25 type  1   force =     0.00000000    0.00000000    0.00000000
     atom   26 type  1   force =     0.00000000    0.00000000    0.00000000
     atom   27 type  1   force =     0.00000000    0.00000000    0.00000000
     atom   28 type  1   force =     0.00000000    0.00000000    0.00000000
     atom   29 type  1   force =     0.00000000    0.00000000    0.00000000
     atom   30 type  1   force =     0.00000000    0.00000000    0.00000000
     atom   31 type  1   force =     0.00000000    0.00000000    0.00000000
     atom   32 type  1   force =     0.00000000    0.00000000    0.00000000
     The SCF correction term to forces
     atom    1 type  1   force =     0.00000000    0.00000000   -0.00000410
     atom    2 type  1   force =    -0.00000000   -0.00000000    0.00000331
     atom    3 type  1   force =     0.00000000   -0.00000000    0.00000033
     atom    4 type  1   force =     0.00000000    0.00000000   -0.00000068
     atom    5 type  1   force =     0.00000000   -0.00000000    0.00000018
     atom    6 type  1   force =    -0.00000000   -0.00000000   -0.00000026
     atom    7 type  1   force =     0.00000000   -0.00000000   -0.00000331
     atom    8 type  1   force =    -0.00000001   -0.00000001    0.00000391
     atom    9 type  1   force =     0.00000000   -0.00000000   -0.00000409
     atom   10 type  1   force =    -0.00000000    0.00000000    0.00000331
     atom   11 type  1   force =    -0.00000000    0.00000000    0.00000032
     atom   12 type  1   force =     0.00000000   -0.00000000   -0.00000068
     atom   13 type  1   force =     0.00000000   -0.00000000    0.00000018
     atom   14 type  1   force =    -0.00000000    0.00000000   -0.00000026
     atom   15 type  1   force =     0.00000000    0.00000000   -0.00000329
     atom   16 type  1   force =    -0.00000001    0.00000001    0.00000391
     atom   17 type  1   force =    -0.00000000   -0.00000000   -0.00000409
     atom   18 type  1   force =     0.00000000   -0.00000000    0.00000331
     atom   19 type  1   force =     0.00000000   -0.00000000    0.00000032
     atom   20 type  1   force =    -0.00000000    0.00000000   -0.00000068
     atom   21 type  1   force =    -0.00000000    0.00000000    0.00000018
     atom   22 type  1   force =     0.00000000   -0.00000000   -0.00000026
     atom   23 type  1   force =     0.00000000    0.00000000   -0.00000329
     atom   24 type  1   force =     0.00000001   -0.00000001    0.00000391
     atom   25 type  1   force =     0.00000000   -0.00000000   -0.00000410
     atom   26 type  1   force =     0.00000000    0.00000000    0.00000331
     atom   27 type  1   force =    -0.00000000    0.00000000    0.00000032
     atom   28 type  1   force =    -0.00000000   -0.00000000   -0.00000068
     atom   29 type  1   force =     0.00000000    0.00000000    0.00000018
     atom   30 type  1   force =     0.00000000    0.00000000   -0.00000026
     atom   31 type  1   force =     0.00000000    0.00000000   -0.00000331
     atom   32 type  1   force =     0.00000001    0.00000001    0.00000391

     Total force =     0.001565     Total SCF correction =     0.000015
     Energy error            =      2.1E-06 Ry
     Gradient error          =      3.9E-04 Ry/Bohr

     bfgs converged in  40 scf cycles and  25 bfgs steps
     (criteria: energy <  1.0E-05 Ry, force <  3.9E-04 Ry/Bohr)

     End of BFGS Geometry Optimization

     Final energy             =    -481.3899465215 Ry

     File ./Li/Lithium.bfgs deleted, as requested
Begin final coordinates

ATOMIC_POSITIONS (angstrom)
Li              -0.0000000700       -0.0000000700       21.8025817175
Li               1.7175778506        1.7175778506       19.7903036218
Li              -0.0000000700       -0.0000000700       25.2289350762
Li               1.7175745421        1.7175745421       23.4827653881
Li              -0.0000000700       -0.0000000700       28.7586336590
Li               1.7175912882        1.7175912882       27.0127165829
Li              -0.0000000600       -0.0000000600       32.4501376334
Li               1.7175553535        1.7175553535       30.4383626975
Li              -0.0000000700        3.4351561600       21.8025848378
Li               1.7175778506        5.1527344794       19.7903036418
Li              -0.0000000700        3.4351561700       25.2289252867
Li               1.7175745421        5.1527377879       23.4827653781
Li              -0.0000000700        3.4351561800       28.7586686033
Li               1.7175912882        5.1527210518       27.0127165829
Li              -0.0000000600        3.4351561700       32.4501023106
Li               1.7175553535        5.1527569865       30.4383627075
Li               3.4351561600       -0.0000000700       21.8025848378
Li               5.1527344794        1.7175778506       19.7903036418
Li               3.4351561700       -0.0000000700       25.2289252867
Li               5.1527377879        1.7175745421       23.4827653781
Li               3.4351561800       -0.0000000700       28.7586686033
Li               5.1527210518        1.7175912882       27.0127165829
Li               3.4351561700       -0.0000000600       32.4501023106
Li               5.1527569865        1.7175553535       30.4383627075
Li               3.4351561600        3.4351561600       21.8025854169
Li               5.1527344794        5.1527344794       19.7903036518
Li               3.4351561700        3.4351561700       25.2289164935
Li               5.1527377879        5.1527377879       23.4827653781
Li               3.4351561800        3.4351561800       28.7587034369
Li               5.1527210518        5.1527210518       27.0127165829
Li               3.4351561700        3.4351561700       32.4500533045
Li               5.1527569865        5.1527569865       30.4383627075
End final coordinates

     Writing all to output data dir ./Li/Lithium.save/ :
     XML data file

     General routines

     Parallel routines

     PAW routines

     Environ routines

   This run was terminated on:  14:26:30   6Jan2025

   JOB DONE.