     Program PWSCF v.7.4 starts on  5Jan2025 at  3:23: 2

     Reading input from espresso.pwi
Warning: card &CELL ignored
Warning: card    PRESS_CONV_THR   = 0.1 ignored
Warning: card    CELL_DOFREE      = 'ALL' ignored
Warning: card / ignored
Warning: card &FCP ignored
Warning: card / ignored
Warning: card &RISM ignored
Warning: card / ignored

     Current dimensions of program PWSCF are:
     Max number of different atomic species (ntypx) = 10
     Max number of k-points (npk) =  40000
     Max angular momentum in pseudopotentials (lmaxx) =  4

     IMPORTANT: XC functional enforced from input :
     Exchange-correlation= PBE
                           (   1   4   3   4   0   0   0)
     Any further DFT definition will be discarded
     Please, verify this is what you really want

     Found identity + ( -0.5000 -0.5000 -0.5000) symmetry
     This is a supercell, fractional translations are disabled
     Message from routine setup:
     using ibrav=0 with symmetry is DISCOURAGED, use correct ibrav instead

     K-points division:     npool     =      32
     R & G space division:  proc/nbgrp/npool/nimage =      16
     Subspace diagonalization in iterative solution of the eigenvalue problem:
     a serial algorithm will be used

     Using Slab Decomposition

     bravais-lattice index     =            0
     lattice parameter (alat)  =       6.5007  a.u.
     unit-cell volume          =     274.7084 (a.u.)^3
     number of atoms/cell      =            2
     number of atomic types    =            1
     number of electrons       =         6.00
     number of Kohn-Sham states=            7
     kinetic-energy cutoff     =      80.0000  Ry
     charge density cutoff     =     800.0000  Ry
     scf convergence threshold =      1.0E-14
     mixing beta               =       0.8000
     number of iterations used =            8  plain     mixing
     Exchange-correlation= PBE
                           (   1   4   3   4   0   0   0)

     celldm(1)=   6.500658  celldm(2)=   0.000000  celldm(3)=   0.000000
     celldm(4)=   0.000000  celldm(5)=   0.000000  celldm(6)=   0.000000

     crystal axes: (cart. coord. in units of alat)
               a(1) = (   1.000000   0.000000   0.000000 )
               a(2) = (   0.000000   1.000000   0.000000 )
               a(3) = (   0.000000   0.000000   1.000000 )

     reciprocal axes: (cart. coord. in units 2 pi/alat)
               b(1) = (  1.000000  0.000000  0.000000 )
               b(2) = (  0.000000  1.000000  0.000000 )
               b(3) = (  0.000000  0.000000  1.000000 )

     PseudoPot. # 1 for Li read from file:
     /work/e89/e89/ba3g18/Repos/Pseudopotentials/Pslibrary/Li.pbe-sl-kjpaw_psl.1.0.0.UPF
     MD5 check sum: 3f4d2cafebb47c6c3aa8ed472e6f074d
     Pseudo is Projector augmented-wave, Zval =  3.0
     Generated using 'atomic' code by A. Dal Corso  v.7.4
     Shape of augmentation charge: PSQ
     Using radial grid of 1017 points,  4 beta functions with:
                l(1) =   0
                l(2) =   0
                l(3) =   1
                l(4) =   1
     Q(r) pseudized with 0 coefficients

     atomic species   valence    mass     pseudopotential
     Li                3.00     6.94000     Li( 1.00)

     48 Sym. Ops., with inversion, found

                                    s                        frac. trans.

      isym =  1     identity

 cryst.   s( 1) = (     1          0          0      )
                  (     0          1          0      )
                  (     0          0          1      )

 cart.    s( 1) = (  1.0000000  0.0000000  0.0000000 )
                  (  0.0000000  1.0000000  0.0000000 )
                  (  0.0000000  0.0000000  1.0000000 )

      isym =  2     180 deg rotation - cart. axis [0,0,1]

[...]

 cryst.   s( 9) = (     0          0          1      )
                  (     0         -1          0      )
                  (     1          0          0      )

 cart.    s( 9) = (  0.0000000  0.0000000  1.0000000 )
                  (  0.0000000 -1.0000000  0.0000000 )
                  (  1.0000000  0.0000000  0.0000000 )

[...]

 cryst.   s(10) = (     0          0         -1      )
                  (     0         -1          0      )
                  (    -1          0          0      )

 cart.    s(10) = (  0.0000000  0.0000000 -1.0000000 )
                  (  0.0000000 -1.0000000  0.0000000 )
                  ( -1.0000000  0.0000000  0.0000000 )

[...]

      isym = 24     120 deg rotation - cart. axis [-1,-1,1]

[...]

      isym = 25     inversion

[...]

      isym = 26     inv. 180 deg rotation - cart. axis [0,0,1]

[...]

      isym = 48     inv. 120 deg rotation - cart. axis [-1,-1,1]

 cryst.   s(48) = (     0         -1          0      )
                  (     0          0          1      )
                  (     1          0          0      )

 cart.    s(48) = (  0.0000000  0.0000000  1.0000000 )
                  ( -1.0000000  0.0000000  0.0000000 )
                  (  0.0000000  1.0000000  0.0000000 )

   Cartesian axes

     site n.     atom                  positions (alat units)
         1        Li     tau(   1) = (   0.0000000   0.0000000   0.0000000  )
         2        Li     tau(   2) = (   0.5000000   0.5000000   0.5000000  )

   Crystallographic axes

     site n.     atom                  positions (cryst. coord.)
         1        Li     tau(   1) = (  0.0000000  0.0000000  0.0000000  )
         2        Li     tau(   2) = (  0.5000000  0.5000000  0.5000000  )

     number of k points=   220  Marzari-Vanderbilt smearing, width (Ry)=  0.0100
                       cart. coord. in units 2pi/alat
        k(    1) = (   0.0000000   0.0000000   0.0000000), wk =   0.0002916
        k(    2) = (   0.0000000   0.0000000   0.0526316), wk =   0.0017495
        k(    3) = (   0.0000000   0.0000000   0.1052632), wk =   0.0017495
        k(    4) = (   0.0000000   0.0000000   0.1578947), wk =   0.0017495
        k(    5) = (   0.0000000   0.0000000   0.2105263), wk =   0.0017495
        k(    6) = (   0.0000000   0.0000000   0.2631579), wk =   0.0017495
        k(    7) = (   0.0000000   0.0000000   0.3157895), wk =   0.0017495
        k(    8) = (   0.0000000   0.0000000   0.3684211), wk =   0.0017495
        k(    9) = (   0.0000000   0.0000000   0.4210526), wk =   0.0017495
        k(   10) = (   0.0000000   0.0000000   0.4736842), wk =   0.0017495
        k(   11) = (   0.0000000   0.0526316   0.0526316), wk =   0.0034991
        k(   12) = (   0.0000000   0.0526316   0.1052632), wk =   0.0069981
        k(   13) = (   0.0000000   0.0526316   0.1578947), wk =   0.0069981
        k(   14) = (   0.0000000   0.0526316   0.2105263), wk =   0.0069981
        k(   15) = (   0.0000000   0.0526316   0.2631579), wk =   0.0069981
        k(   16) = (   0.0000000   0.0526316   0.3157895), wk =   0.0069981
        k(   17) = (   0.0000000   0.0526316   0.3684211), wk =   0.0069981
        k(   18) = (   0.0000000   0.0526316   0.4210526), wk =   0.0069981
        k(   19) = (   0.0000000   0.0526316   0.4736842), wk =   0.0069981
        k(   20) = (   0.0000000   0.1052632   0.1052632), wk =   0.0034991
        k(   21) = (   0.0000000   0.1052632   0.1578947), wk =   0.0069981
        k(   22) = (   0.0000000   0.1052632   0.2105263), wk =   0.0069981
        k(   23) = (   0.0000000   0.1052632   0.2631579), wk =   0.0069981
        k(   24) = (   0.0000000   0.1052632   0.3157895), wk =   0.0069981
        k(   25) = (   0.0000000   0.1052632   0.3684211), wk =   0.0069981
        k(   26) = (   0.0000000   0.1052632   0.4210526), wk =   0.0069981
        k(   27) = (   0.0000000   0.1052632   0.4736842), wk =   0.0069981
        k(   28) = (   0.0000000   0.1578947   0.1578947), wk =   0.0034991
        k(   29) = (   0.0000000   0.1578947   0.2105263), wk =   0.0069981
        k(   30) = (   0.0000000   0.1578947   0.2631579), wk =   0.0069981
        k(   31) = (   0.0000000   0.1578947   0.3157895), wk =   0.0069981
        k(   32) = (   0.0000000   0.1578947   0.3684211), wk =   0.0069981
        k(   33) = (   0.0000000   0.1578947   0.4210526), wk =   0.0069981
        k(   34) = (   0.0000000   0.1578947   0.4736842), wk =   0.0069981
        k(   35) = (   0.0000000   0.2105263   0.2105263), wk =   0.0034991
        k(   36) = (   0.0000000   0.2105263   0.2631579), wk =   0.0069981
        k(   37) = (   0.0000000   0.2105263   0.3157895), wk =   0.0069981
        k(   38) = (   0.0000000   0.2105263   0.3684211), wk =   0.0069981
        k(   39) = (   0.0000000   0.2105263   0.4210526), wk =   0.0069981
        k(   40) = (   0.0000000   0.2105263   0.4736842), wk =   0.0069981
        k(   41) = (   0.0000000   0.2631579   0.2631579), wk =   0.0034991
        k(   42) = (   0.0000000   0.2631579   0.3157895), wk =   0.0069981
        k(   43) = (   0.0000000   0.2631579   0.3684211), wk =   0.0069981
        k(   44) = (   0.0000000   0.2631579   0.4210526), wk =   0.0069981
        k(   45) = (   0.0000000   0.2631579   0.4736842), wk =   0.0069981
        k(   46) = (   0.0000000   0.3157895   0.3157895), wk =   0.0034991
        k(   47) = (   0.0000000   0.3157895   0.3684211), wk =   0.0069981
        k(   48) = (   0.0000000   0.3157895   0.4210526), wk =   0.0069981
        k(   49) = (   0.0000000   0.3157895   0.4736842), wk =   0.0069981
        k(   50) = (   0.0000000   0.3684211   0.3684211), wk =   0.0034991
        k(   51) = (   0.0000000   0.3684211   0.4210526), wk =   0.0069981
        k(   52) = (   0.0000000   0.3684211   0.4736842), wk =   0.0069981
        k(   53) = (   0.0000000   0.4210526   0.4210526), wk =   0.0034991
        k(   54) = (   0.0000000   0.4210526   0.4736842), wk =   0.0069981
        k(   55) = (   0.0000000   0.4736842   0.4736842), wk =   0.0034991
        k(   56) = (   0.0526316   0.0526316   0.0526316), wk =   0.0023327
        k(   57) = (   0.0526316   0.0526316   0.1052632), wk =   0.0069981
        k(   58) = (   0.0526316   0.0526316   0.1578947), wk =   0.0069981
        k(   59) = (   0.0526316   0.0526316   0.2105263), wk =   0.0069981
        k(   60) = (   0.0526316   0.0526316   0.2631579), wk =   0.0069981
[...]
        k(  206) = (   0.3157895   0.3684211   0.4210526), wk =   0.0139962
        k(  207) = (   0.3157895   0.3684211   0.4736842), wk =   0.0139962
        k(  208) = (   0.3157895   0.4210526   0.4210526), wk =   0.0069981
        k(  209) = (   0.3157895   0.4210526   0.4736842), wk =   0.0139962
        k(  210) = (   0.3157895   0.4736842   0.4736842), wk =   0.0069981
        k(  211) = (   0.3684211   0.3684211   0.3684211), wk =   0.0023327
        k(  212) = (   0.3684211   0.3684211   0.4210526), wk =   0.0069981
        k(  213) = (   0.3684211   0.3684211   0.4736842), wk =   0.0069981
        k(  214) = (   0.3684211   0.4210526   0.4210526), wk =   0.0069981
        k(  215) = (   0.3684211   0.4210526   0.4736842), wk =   0.0139962
        k(  216) = (   0.3684211   0.4736842   0.4736842), wk =   0.0069981
        k(  217) = (   0.4210526   0.4210526   0.4210526), wk =   0.0023327
        k(  218) = (   0.4210526   0.4210526   0.4736842), wk =   0.0069981
        k(  219) = (   0.4210526   0.4736842   0.4736842), wk =   0.0069981
        k(  220) = (   0.4736842   0.4736842   0.4736842), wk =   0.0023327

                       cryst. coord.
        k(    1) = (   0.0000000   0.0000000   0.0000000), wk =   0.0002916
        k(    2) = (   0.0000000   0.0000000   0.0526316), wk =   0.0017495
        k(    3) = (   0.0000000   0.0000000   0.1052632), wk =   0.0017495
        k(    4) = (   0.0000000   0.0000000   0.1578947), wk =   0.0017495
        k(    5) = (   0.0000000   0.0000000   0.2105263), wk =   0.0017495
        k(    6) = (   0.0000000   0.0000000   0.2631579), wk =   0.0017495
        k(    7) = (   0.0000000   0.0000000   0.3157895), wk =   0.0017495
        k(    8) = (   0.0000000   0.0000000   0.3684211), wk =   0.0017495
        k(    9) = (   0.0000000   0.0000000   0.4210526), wk =   0.0017495
        k(   10) = (   0.0000000   0.0000000   0.4736842), wk =   0.0017495
        k(   11) = (   0.0000000   0.0526316   0.0526316), wk =   0.0034991
        k(   12) = (   0.0000000   0.0526316   0.1052632), wk =   0.0069981
        k(   13) = (   0.0000000   0.0526316   0.1578947), wk =   0.0069981
        k(   14) = (   0.0000000   0.0526316   0.2105263), wk =   0.0069981
        k(   15) = (   0.0000000   0.0526316   0.2631579), wk =   0.0069981
        k(   16) = (   0.0000000   0.0526316   0.3157895), wk =   0.0069981
        k(   17) = (   0.0000000   0.0526316   0.3684211), wk =   0.0069981
        k(   18) = (   0.0000000   0.0526316   0.4210526), wk =   0.0069981
        k(   19) = (   0.0000000   0.0526316   0.4736842), wk =   0.0069981
        k(   20) = (   0.0000000   0.1052632   0.1052632), wk =   0.0034991
        k(   21) = (   0.0000000   0.1052632   0.1578947), wk =   0.0069981
        k(   22) = (   0.0000000   0.1052632   0.2105263), wk =   0.0069981
        k(   23) = (   0.0000000   0.1052632   0.2631579), wk =   0.0069981
        k(   24) = (   0.0000000   0.1052632   0.3157895), wk =   0.0069981
        k(   25) = (   0.0000000   0.1052632   0.3684211), wk =   0.0069981
        k(   26) = (   0.0000000   0.1052632   0.4210526), wk =   0.0069981
        k(   27) = (   0.0000000   0.1052632   0.4736842), wk =   0.0069981
        k(   28) = (   0.0000000   0.1578947   0.1578947), wk =   0.0034991
        k(   29) = (   0.0000000   0.1578947   0.2105263), wk =   0.0069981
        k(   30) = (   0.0000000   0.1578947   0.2631579), wk =   0.0069981
        k(   31) = (   0.0000000   0.1578947   0.3157895), wk =   0.0069981
        k(   32) = (   0.0000000   0.1578947   0.3684211), wk =   0.0069981
        k(   33) = (   0.0000000   0.1578947   0.4210526), wk =   0.0069981
        k(   34) = (   0.0000000   0.1578947   0.4736842), wk =   0.0069981
        k(   35) = (   0.0000000   0.2105263   0.2105263), wk =   0.0034991
        k(   36) = (   0.0000000   0.2105263   0.2631579), wk =   0.0069981
        k(   37) = (   0.0000000   0.2105263   0.3157895), wk =   0.0069981
        k(   38) = (   0.0000000   0.2105263   0.3684211), wk =   0.0069981
        k(   39) = (   0.0000000   0.2105263   0.4210526), wk =   0.0069981
        k(   40) = (   0.0000000   0.2105263   0.4736842), wk =   0.0069981
        k(   41) = (   0.0000000   0.2631579   0.2631579), wk =   0.0034991
        k(   42) = (   0.0000000   0.2631579   0.3157895), wk =   0.0069981
        k(   43) = (   0.0000000   0.2631579   0.3684211), wk =   0.0069981
        k(   44) = (   0.0000000   0.2631579   0.4210526), wk =   0.0069981
        k(   45) = (   0.0000000   0.2631579   0.4736842), wk =   0.0069981
        k(   46) = (   0.0000000   0.3157895   0.3157895), wk =   0.0034991
        k(   47) = (   0.0000000   0.3157895   0.3684211), wk =   0.0069981
        k(   48) = (   0.0000000   0.3157895   0.4210526), wk =   0.0069981
        k(   49) = (   0.0000000   0.3157895   0.4736842), wk =   0.0069981
        k(   50) = (   0.0000000   0.3684211   0.3684211), wk =   0.0034991
        k(   51) = (   0.0000000   0.3684211   0.4210526), wk =   0.0069981
        k(   52) = (   0.0000000   0.3684211   0.4736842), wk =   0.0069981
        k(   53) = (   0.0000000   0.4210526   0.4210526), wk =   0.0034991
        k(   54) = (   0.0000000   0.4210526   0.4736842), wk =   0.0069981
        k(   55) = (   0.0000000   0.4736842   0.4736842), wk =   0.0034991
        k(   56) = (   0.0526316   0.0526316   0.0526316), wk =   0.0023327
        k(   57) = (   0.0526316   0.0526316   0.1052632), wk =   0.0069981
        k(   58) = (   0.0526316   0.0526316   0.1578947), wk =   0.0069981
        k(   59) = (   0.0526316   0.0526316   0.2105263), wk =   0.0069981
        k(   60) = (   0.0526316   0.0526316   0.2631579), wk =   0.0069981
[...]
        k(  206) = (   0.3157895   0.3684211   0.4210526), wk =   0.0139962
        k(  207) = (   0.3157895   0.3684211   0.4736842), wk =   0.0139962
        k(  208) = (   0.3157895   0.4210526   0.4210526), wk =   0.0069981
        k(  209) = (   0.3157895   0.4210526   0.4736842), wk =   0.0139962
        k(  210) = (   0.3157895   0.4736842   0.4736842), wk =   0.0069981
        k(  211) = (   0.3684211   0.3684211   0.3684211), wk =   0.0023327
        k(  212) = (   0.3684211   0.3684211   0.4210526), wk =   0.0069981
        k(  213) = (   0.3684211   0.3684211   0.4736842), wk =   0.0069981
        k(  214) = (   0.3684211   0.4210526   0.4210526), wk =   0.0069981
        k(  215) = (   0.3684211   0.4210526   0.4736842), wk =   0.0139962
        k(  216) = (   0.3684211   0.4736842   0.4736842), wk =   0.0069981
        k(  217) = (   0.4210526   0.4210526   0.4210526), wk =   0.0023327
        k(  218) = (   0.4210526   0.4210526   0.4736842), wk =   0.0069981
        k(  219) = (   0.4210526   0.4736842   0.4736842), wk =   0.0069981
        k(  220) = (   0.4736842   0.4736842   0.4736842), wk =   0.0023327

     Initial potential from superposition of free atoms

     starting charge       5.9908, renormalised to       6.0000
     Starting wfcs are random
     Checking if some PAW data can be deallocated...

     Self-consistent Calculation

     iteration #  1     ecut=    80.00 Ry     beta= 0.80
     Davidson diagonalization with overlap

     c_bands:  2 eigenvalues not converged
     c_bands:  3 eigenvalues not converged
     c_bands:  3 eigenvalues not converged
     c_bands:  1 eigenvalues not converged
     c_bands:  2 eigenvalues not converged
     c_bands:  3 eigenvalues not converged
     c_bands:  2 eigenvalues not converged
     ethr =  1.00E-12,  avg # of iterations = 20.0

     total energy              =     -30.08820334 Ry
     estimated scf accuracy    <       0.00062868 Ry

[...]

     ethr =  1.05E-05,  avg # of iterations =  1.5

[...]

     total energy              =     -30.08823743 Ry
     estimated scf accuracy    <          1.1E-14 Ry

     iteration # 26     ecut=    80.00 Ry     beta= 0.80
     Davidson diagonalization with overlap

     ethr =  1.00E-13,  avg # of iterations =  1.0

     End of self-consistent calculation

          k = 0.0000 0.0000 0.0000 (  3287 PWs)   bands (ev):

   -45.6218 -45.5898  -2.6650   6.4098   6.4098   6.4098   8.6601

     occupation numbers
     1.0000   1.0000   1.0000   0.0000   0.0000   0.0000   0.0000

[...]

          k = 0.4737 0.4737 0.4737 (  3328 PWs)   bands (ev):

   -45.6014 -45.6013   3.6216   3.9757   3.9757   4.6323   4.6323

     occupation numbers
     1.0000   1.0000   0.0000   0.0000   0.0000   0.0000   0.0000

     the Fermi energy is     0.9105 ev

!    total energy              =     -30.08823743 Ry
     total all-electron energy =       -30.088254 Ry
     estimated scf accuracy    <          9.9E-15 Ry
     smearing contrib. (-TS)   =      -0.00002857 Ry
     internal energy E=F+TS    =     -30.08820887 Ry

     The total energy is F=E-TS. E is the sum of the following terms:
     one-electron contribution =     -21.17048851 Ry
     hartree contribution      =       8.17254817 Ry
     xc contribution           =      -7.18971660 Ry
     ewald contribution        =     -10.07685736 Ry
     one-center paw contrib.   =       0.17630543 Ry
      -> PAW hartree energy AE =       7.51743732 Ry
      -> PAW hartree energy PS =      -7.29495408 Ry
      -> PAW xc energy AE      =      -3.50245489 Ry
      -> PAW xc energy PS      =       3.36812436 Ry
      -> total E_H with PAW    =       8.39503142 Ry
      -> total E_XC with PAW   =      -7.32404713 Ry

     convergence has been achieved in  26 iterations

     Forces acting on atoms (cartesian axes, Ry/au):

     atom    1 type  1   force =     0.00000000    0.00000000    0.00000000
     atom    2 type  1   force =     0.00000000    0.00000000    0.00000000
     The non-local contrib.  to forces
     atom    1 type  1   force =     0.00000000    0.00000000    0.00000000
     atom    2 type  1   force =     0.00000000    0.00000000    0.00000000
     The ionic contribution  to forces
     atom    1 type  1   force =     0.00000000    0.00000000    0.00000000
     atom    2 type  1   force =     0.00000000    0.00000000    0.00000000
     The local contribution  to forces
     atom    1 type  1   force =     0.00000000    0.00000000    0.00000000
     atom    2 type  1   force =    -0.00000000   -0.00000000   -0.00000000
     The core correction contribution to forces
     atom    1 type  1   force =     0.00000000    0.00000000    0.00000000
     atom    2 type  1   force =     0.00000000    0.00000000    0.00000000
     The Hubbard contrib.    to forces
     atom    1 type  1   force =     0.00000000    0.00000000    0.00000000
     atom    2 type  1   force =     0.00000000    0.00000000    0.00000000
     The SCF correction term to forces
     atom    1 type  1   force =     0.00000000   -0.00000000    0.00000000
     atom    2 type  1   force =     0.00000000    0.00000000    0.00000000

     Total force =     0.000000     Total SCF correction =     0.000000

     Writing all to output data dir ./Li/Lithium.save/ :
     XML data file

     General routines

     Parallel routines

     PAW routines

   This run was terminated on:   3:23: 6   5Jan2025

   JOB DONE.