     Program PWSCF v.7.4 starts on  5Jan2025 at  2:10:48

     Reading input from espresso.pwi
Warning: card &CELL ignored
Warning: card    PRESS_CONV_THR   = 0.1 ignored
Warning: card    CELL_DOFREE      = 'ALL' ignored
Warning: card / ignored
Warning: card &FCP ignored
Warning: card / ignored
Warning: card &RISM ignored
Warning: card / ignored

     Current dimensions of program PWSCF are:
     Max number of different atomic species (ntypx) = 10
     Max number of k-points (npk) =  40000
     Max angular momentum in pseudopotentials (lmaxx) =  4

     IMPORTANT: XC functional enforced from input :
     Exchange-correlation= PBE
                           (   1   4   3   4   0   0   0)
     Any further DFT definition will be discarded
     Please, verify this is what you really want

     Reading input from environ.in:
     * using ionic solvent mode
     * setting boundary derivatives method to SSCS default
     * setting electrolyte-boundary derivatives method to SSCS default

Environ Warning (1001): card EOF ignored

     R & G space division:  proc/nbgrp/npool/nimage =     256
     Subspace diagonalization in iterative solution of the eigenvalue problem:
     a serial algorithm will be used

     Using Slab Decomposition

     bravais-lattice index     =           14
     lattice parameter (alat)  =      11.2436  a.u.
     unit-cell volume          =   10615.2838 (a.u.)^3
     number of atoms/cell      =           16
     number of atomic types    =            1
     number of electrons       =        48.00
     number of Kohn-Sham states=           36
     kinetic-energy cutoff     =      80.0000  Ry
     charge density cutoff     =     800.0000  Ry
     scf convergence threshold =      1.0E-06
     mixing beta               =       0.2000
     number of iterations used =            8  local-TF  mixing
     energy convergence thresh.=      1.0E-05
     force convergence thresh. =      3.9E-04
     Exchange-correlation= PBE
                           (   1   4   3   4   0   0   0)
     nstep                     =          999

                                  Environ Setup Summary

          O. Andreussi, I. Dabo and N. Marzari, J. Chem. Phys. 136, 064102 (2012)
          F. Nattino, M. Truscott, N. Marzari, and O. Andreussi, J. Chem. Phys. 150, 041722 (2019)

     in publications or presentations arising from this work.

     Parameters

     compensation onset threshold      =               0.1000E+00
     static permittivity               =                    89.90
     surface tension in input (dyn/cm) =                    37.30
     surface tension in internal units =               0.4792E-04

     Solvent Boundary

     solvent mode                      =                    ionic
     derivatives method                =                   lowmem
     electrolyte derivatives method    =                   lowmem
     numerical core for derivatives    =                      fft
     switching function adopted        =                     SCCS
     density limit for vacuum region   =               0.5000E-02
     density limit for bulk solvent    =               0.1000E-03
     soft-sphere radius mode           =                    bondi
     soft-sphere softness              =                     0.50
     alpha                             =                     1.32

     Electrostatic Setup

     electrostatic problem to solve    =                    modpb
     numerical solver adopted          =                   newton
     type of auxiliary density adopted =                     none
     numerical core for poisson        =                      fft
     adopting a nested solver scheme
     inner solver                      =                       cg
     inner core                        =                      fft
     type of pbc corrections           =                parabolic
     numerical core for corrections    =                      1da

     >>>>> Grand-Canonical SCF is activated <<<<<
     Initial Total Charge  =     0.000000 e
     Target Fermi Energy   =    -1.404000 eV
     Thr. of Fermi Energy  =     0.001000 eV
     Wave-shift of Kerker  =     0.400000 bohr^-1
     Wave-shift of Hartree =     1.500000 bohr^-1
     Mixing Rate of Fermi  =     0.050000

     celldm(1)=  11.243615  celldm(2)=   1.000000  celldm(3)=   7.921182
     celldm(4)=   0.000000  celldm(5)=   0.000000  celldm(6)=  -0.333333

     crystal axes: (cart. coord. in units of alat)
               a(1) = (   1.000000   0.000000   0.000000 )
               a(2) = (  -0.333333   0.942809   0.000000 )
               a(3) = (   0.000000   0.000000   7.921182 )

     reciprocal axes: (cart. coord. in units 2 pi/alat)
               b(1) = (  1.000000  0.353553 -0.000000 )
               b(2) = (  0.000000  1.060660  0.000000 )
               b(3) = (  0.000000 -0.000000  0.126244 )

     PseudoPot. # 1 for Li read from file:
     /work/e89/e89/ba3g18/Repos/Pseudopotentials/Pslibrary/Li.pbe-sl-kjpaw_psl.1.0.0.UPF
     MD5 check sum: 3f4d2cafebb47c6c3aa8ed472e6f074d
     Pseudo is Projector augmented-wave, Zval =  3.0
     Generated using 'atomic' code by A. Dal Corso  v.7.4
     Shape of augmentation charge: PSQ
     Using radial grid of 1017 points,  4 beta functions with:
                l(1) =   0
                l(2) =   0
                l(3) =   1
                l(4) =   1
     Q(r) pseudized with 0 coefficients

     atomic species   valence    mass     pseudopotential
     Li                3.00     6.94000     Li( 1.00)

      2 Sym. Ops. (no inversion) found

                                    s                        frac. trans.

      isym =  1     identity

 cryst.   s( 1) = (     1          0          0      )
                  (     0          1          0      )
                  (     0          0          1      )

 cart.    s( 1) = (  1.0000000 -0.0000000  0.0000000 )
                  (  0.0000000  1.0000000  0.0000000 )
                  (  0.0000000  0.0000000  1.0000000 )

      isym =  2     180 deg rotation - cart. axis [0,0,1]

 cryst.   s( 2) = (    -1          0          0      )
                  (     0         -1          0      )
                  (     0          0          1      )

 cart.    s( 2) = ( -1.0000000  0.0000000  0.0000000 )
                  (  0.0000000 -1.0000000  0.0000000 )
                  (  0.0000000  0.0000000  1.0000000 )

     point group C_2  (2)
     there are  2 classes
     the character table:

       E     C2
A      1.00  1.00
B      1.00 -1.00

     the symmetry operations in each class and the name of the first element:

     E        1
          identity
     C2       2
          180 deg rotation - cart. axis [0,0,1]

   Cartesian axes

     site n.     atom                  positions (alat units)
         1        Li     tau(   1) = (   0.1666578   0.2356939   3.3442038  )
         2        Li     tau(   2) = (   0.3333333   0.4714046   3.7533361  )
         3        Li     tau(   3) = (   0.1666670   0.2356844   4.1675908  )
         4        Li     tau(   4) = (   0.3333333   0.4714046   4.5772534  )
         5        Li     tau(   5) = (  -0.0000041   0.7071175   3.3441915  )
         6        Li     tau(   6) = (   0.1666667   0.9428090   3.7533389  )
         7        Li     tau(   7) = (   0.0000040   0.7071235   4.1675720  )
         8        Li     tau(   8) = (   0.1666667   0.9428090   4.5772518  )
         9        Li     tau(   9) = (   0.6666708   0.2356915   3.3441915  )
        10        Li     tau(  10) = (   0.8333333   0.4714046   3.7533443  )
        11        Li     tau(  11) = (   0.6666626   0.2356856   4.1675720  )
        12        Li     tau(  12) = (   0.8333333   0.4714046   4.5772625  )
        13        Li     tau(  13) = (   0.5000089   0.7071151   3.3442038  )
        14        Li     tau(  14) = (   0.6666667   0.9428090   3.7533497  )
        15        Li     tau(  15) = (   0.4999997   0.7071247   4.1675908  )
        16        Li     tau(  16) = (   0.6666667   0.9428090   4.5772444  )

   Crystallographic axes

     site n.     atom                  positions (cryst. coord.)
         1        Li     tau(   1) = (  0.2499881  0.2499912  0.4221850  )
         2        Li     tau(   2) = (  0.4999999  0.5000001  0.4738354  )
         3        Li     tau(   3) = (  0.2499939  0.2499811  0.5261324  )
         4        Li     tau(   4) = (  0.4999999  0.5000001  0.5778498  )
         5        Li     tau(   5) = (  0.2499995  0.7500115  0.4221834  )
         6        Li     tau(   6) = (  0.4999997  1.0000001  0.4738357  )
         7        Li     tau(   7) = (  0.2500097  0.7500177  0.5261301  )
         8        Li     tau(   8) = (  0.4999997  1.0000000  0.5778496  )
         9        Li     tau(   9) = (  0.7500002  0.2499886  0.4221834  )
        10        Li     tau(  10) = (  0.9999999  0.5000001  0.4738364  )
        11        Li     tau(  11) = (  0.7499900  0.2499823  0.5261301  )
        12        Li     tau(  12) = (  0.9999999  0.5000001  0.5778509  )
        13        Li     tau(  13) = (  0.7500116  0.7500089  0.4221850  )
        14        Li     tau(  14) = (  0.9999997  1.0000000  0.4738371  )
        15        Li     tau(  15) = (  0.7500058  0.7500190  0.5261324  )
        16        Li     tau(  16) = (  0.9999997  1.0000000  0.5778487  )

     number of k points=    61  Marzari-Vanderbilt smearing, width (Ry)=  0.0100
                       cart. coord. in units 2pi/alat
        k(    1) = (   0.0000000   0.0000000   0.0000000), wk =   0.0165289
        k(    2) = (   0.0000000   0.0964237   0.0000000), wk =   0.0330579
        k(    3) = (   0.0000000   0.1928473   0.0000000), wk =   0.0330579
        k(    4) = (   0.0000000   0.2892710   0.0000000), wk =   0.0330579
        k(    5) = (   0.0000000   0.3856946   0.0000000), wk =   0.0330579
        k(    6) = (   0.0000000   0.4821183   0.0000000), wk =   0.0330579
        k(    7) = (   0.0909091   0.0321412   0.0000000), wk =   0.0330579
        k(    8) = (   0.0909091   0.1285648   0.0000000), wk =   0.0330579
        k(    9) = (   0.0909091   0.2249885   0.0000000), wk =   0.0330579
        k(   10) = (   0.0909091   0.3214122   0.0000000), wk =   0.0330579
        k(   11) = (   0.0909091   0.4178358   0.0000000), wk =   0.0330579
        k(   12) = (   0.0909091   0.5142595   0.0000000), wk =   0.0330579
        k(   13) = (   0.0909091  -0.4499771   0.0000000), wk =   0.0330579
        k(   14) = (   0.0909091  -0.3535534   0.0000000), wk =   0.0330579
        k(   15) = (   0.0909091  -0.2571298   0.0000000), wk =   0.0330579
        k(   16) = (   0.0909091  -0.1607061   0.0000000), wk =   0.0330579
        k(   17) = (   0.0909091  -0.0642825   0.0000000), wk =   0.0330579
        k(   18) = (   0.1818182   0.0642824   0.0000000), wk =   0.0330579
        k(   19) = (   0.1818182   0.1607060   0.0000000), wk =   0.0330579
        k(   20) = (   0.1818182   0.2571297   0.0000000), wk =   0.0330579
        k(   21) = (   0.1818182   0.3535533   0.0000000), wk =   0.0330579
        k(   22) = (   0.1818182   0.4499770   0.0000000), wk =   0.0330579
        k(   23) = (   0.1818182   0.5464007   0.0000000), wk =   0.0330579
[...]
     energy             new  =    -240.7561662592 Ry

     CASE: energy            _new < energy            _old

     WARNING: bfgs curvature condition failed, Theta= 0.834
     new trust radius        =       0.0004592179 bohr
     new conv_thr            =            1.0E-12 Ry

ATOMIC_POSITIONS (angstrom)
Li               0.9915947093        1.4023540870       19.8979439828
Li               1.9832882700        2.8047934300       22.3312264424
Li               0.9916433165        1.4023073310       24.7975724921
Li               1.9832882800        2.8047934500       27.2333019345
Li              -0.0000185649        4.2072467163       19.8978771855
Li               0.9916443500        5.6095863900       22.3312253469
Li               0.0000238262        4.2072730916       24.7974777918
Li               0.9916443300        5.6095863500       27.2332924773
Li               3.9665951849        1.4023397537       19.8978772455
Li               4.9582206700        2.8047934200       22.3312572295
Li               3.9665527838        1.4023133484       24.7974778118
Li               4.9582206800        2.8047934400       27.2333445924
Li               2.9749819107        4.2072323830       19.8979439528
Li               3.9665767500        5.6095863800       22.3312954095
Li               2.9749332935        4.2072791090       24.7975724621
Li               3.9665767300        5.6095863300       27.2332577000

     Writing config-only to output data dir ./Li/Lithium.save/ :
     XML data file     NEW-OLD atomic charge density approx. for the potential

[...]

     Self-consistent Calculation

[...]

     Threshold (ethr) on eigenvalues was too large:
     Diagonalizing with lowered threshold

     Davidson diagonalization with overlap

[...]

     add environment contribution to local potential

     total energy              =    -240.75616758 Ry
     estimated scf accuracy    <          4.3E-12 Ry

     total charge of GC-SCF    =      -3.48085019 e
     the Fermi energy          =      -1.40400352 eV
                        (error :       0.00000352 eV)
     electrostatic embedding   =      -3.41627105 Ry
     cavitation energy         =       0.01235683 Ry
     electrolyte free energy   =      -0.08786762 Ry
     correction to one-el term =      93.92401203 Ry

     iteration #  8     ecut=    80.00 Ry     beta= 0.20
     Davidson diagonalization with overlap

     ethr =  1.00E-13,  avg # of iterations =  5.6

     negative rho (up, down):  1.477E-04 0.000E+00

     End of self-consistent calculation

[...]

          k = 0.4545 0.0643 0.0000 (128255 PWs)   bands (ev):

   -48.1664 -48.1654 -48.1647 -48.1636 -48.1581 -48.1576 -48.1570 -48.1565
   -47.9131 -47.9103 -47.9060 -47.9052 -47.9032 -47.9027 -47.8996 -47.8979
    -4.1351  -3.6597  -3.5892  -3.1079  -2.9290  -2.3452  -2.1875  -1.9784
    -1.5470  -1.4479  -1.3586  -1.0213  -0.7043  -0.6159  -0.5746  -0.2001
    -0.1663  -0.0119   0.3065   0.3726

     occupation numbers
     1.0000   1.0000   1.0000   1.0000   1.0000   1.0000   1.0000   1.0000
     1.0000   1.0000   1.0000   1.0000   1.0000   1.0000   1.0000   1.0000
     1.0000   1.0000   1.0000   1.0000   1.0000   1.0000   1.0000   1.0000
     1.0411   0.6374   0.2056   0.0000   0.0000   0.0000   0.0000   0.0000
     0.0000   0.0000   0.0000   0.0000

     the Fermi energy is    -1.4040 ev

!    total energy              =    -240.75616757 Ry
     total all-electron energy =      -240.756298 Ry
     estimated scf accuracy    <          5.5E-13 Ry

!    total charge of GC-SCF    =      -3.48084873 e
     smearing contrib. (-TS)   =      -0.00068039 Ry
     internal energy E=F+TS    =    -240.75548718 Ry

     The total energy is F=E-TS. E is the sum of the following terms:
     one-electron contribution =   -2642.50904593 Ry
     hartree contribution      =    1297.98971668 Ry
     xc contribution           =     -58.36795857 Ry
     ewald contribution        =    1069.92915157 Ry
     one-center paw contrib.   =       1.41124461 Ry
      -> PAW hartree energy AE =       7.45785105 Ry
      -> PAW hartree energy PS =      -7.23520651 Ry
      -> PAW xc energy AE      =      -3.49082224 Ry
      -> PAW xc energy PS      =       3.35638532 Ry
      -> total E_H with PAW    =    1298.21236122 Ry
      -> total E_XC with PAW   =     -58.50239550 Ry
     pot.stat. contrib. (-muN) =       0.35919608 Ry
     electrostatic embedding   =      -3.41627159 Ry
     cavitation energy         =       0.01235683 Ry
     electrolyte free energy   =      -0.08786858 Ry
     correction to one-el term =      93.92399173 Ry

     WARNING: you are using the parabolic pbc correction;
              the potential shift above must be added to
              band and Fermi energies.

     convergence has been achieved in   8 iterations
     The dielectric solvent contribution to forces
     atom    1 type  1   force =    -0.00000036   -0.00000175    0.16088906
     atom    2 type  1   force =    -0.00000000    0.00000000    0.05505585
     atom    3 type  1   force =    -0.00000000   -0.00000085   -0.05582359
     atom    4 type  1   force =    -0.00000000    0.00000003   -0.16173520
     atom    5 type  1   force =    -0.00000031    0.00000169    0.16088789
     atom    6 type  1   force =    -0.00000000   -0.00000000    0.05505581
     atom    7 type  1   force =     0.00000003    0.00000085   -0.05581944
     atom    8 type  1   force =    -0.00000001   -0.00000002   -0.16173586
     atom    9 type  1   force =     0.00000030   -0.00000169    0.16088790
     atom   10 type  1   force =    -0.00000000    0.00000000    0.05505431
     atom   11 type  1   force =    -0.00000003   -0.00000085   -0.05581945
     atom   12 type  1   force =    -0.00000001    0.00000003   -0.16173396
     atom   13 type  1   force =     0.00000035    0.00000175    0.16088905
     atom   14 type  1   force =    -0.00000000   -0.00000000    0.05505271
     atom   15 type  1   force =     0.00000000    0.00000085   -0.05582359
     atom   16 type  1   force =    -0.00000002   -0.00000003   -0.16173633

     Forces acting on atoms (cartesian axes, Ry/au):

     atom    1 type  1   force =     0.00000169    0.00000358    0.00005616
     atom    2 type  1   force =     0.00000000    0.00000000   -0.00031137
     atom    3 type  1   force =    -0.00000092    0.00000760    0.00037590
     atom    4 type  1   force =     0.00000000    0.00000000   -0.00012100
     atom    5 type  1   force =     0.00000278   -0.00000354    0.00005758
     atom    6 type  1   force =     0.00000000    0.00000000   -0.00031609
     atom    7 type  1   force =    -0.00000022   -0.00000734    0.00038144
     atom    8 type  1   force =     0.00000000    0.00000000   -0.00012014
     atom    9 type  1   force =    -0.00000278    0.00000354    0.00005758
     atom   10 type  1   force =     0.00000000    0.00000000   -0.00031624
     atom   11 type  1   force =     0.00000022    0.00000734    0.00038144
     atom   12 type  1   force =     0.00000000    0.00000000   -0.00012485
     atom   13 type  1   force =    -0.00000169   -0.00000358    0.00005616
     atom   14 type  1   force =     0.00000000    0.00000000   -0.00031498
     atom   15 type  1   force =     0.00000092   -0.00000760    0.00037590
     atom   16 type  1   force =     0.00000000    0.00000000   -0.00011750
     The non-local contrib.  to forces
     atom    1 type  1   force =     0.00000186    0.00000704   -0.02932615
     atom    2 type  1   force =     0.00000000    0.00000000    0.00145208
     atom    3 type  1   force =     0.00000046    0.00001000   -0.00136635
     atom    4 type  1   force =     0.00000000    0.00000000    0.02923753
     atom    5 type  1   force =     0.00000079   -0.00000395   -0.02932694
     atom    6 type  1   force =     0.00000000    0.00000000    0.00144844
     atom    7 type  1   force =    -0.00000001   -0.00001091   -0.00136390
     atom    8 type  1   force =     0.00000000    0.00000000    0.02924391
     atom    9 type  1   force =    -0.00000079    0.00000395   -0.02932694
     atom   10 type  1   force =     0.00000000    0.00000000    0.00145367
     atom   11 type  1   force =     0.00000001    0.00001091   -0.00136390
     atom   12 type  1   force =     0.00000000    0.00000000    0.02923550
     atom   13 type  1   force =    -0.00000186   -0.00000704   -0.02932615
     atom   14 type  1   force =     0.00000000    0.00000000    0.00145045
     atom   15 type  1   force =    -0.00000046   -0.00001000   -0.00136635
     atom   16 type  1   force =     0.00000000    0.00000000    0.02924269
     The ionic contribution  to forces
     atom    1 type  1   force =     0.00004570    0.00011086   -8.97405869
     atom    2 type  1   force =    -0.00000006   -0.00000006   -3.00439292
     atom    3 type  1   force =    -0.00001234    0.00020444    3.00498645
     atom    4 type  1   force =    -0.00000004   -0.00000011    8.97356404
     atom    5 type  1   force =     0.00005465   -0.00009075   -8.97418460
     atom    6 type  1   force =     0.00000006    0.00000007   -3.00447371
     atom    7 type  1   force =    -0.00000661   -0.00020425    3.00481154
     atom    8 type  1   force =     0.00000004    0.00000011    8.97362674
     atom    9 type  1   force =    -0.00005468    0.00009073   -8.97418442
     atom   10 type  1   force =    -0.00000001   -0.00000005   -3.00434569
     atom   11 type  1   force =     0.00000657    0.00020423    3.00481162
     atom   12 type  1   force =    -0.00000001   -0.00000011    8.97360823
     atom   13 type  1   force =    -0.00004573   -0.00011087   -8.97405884
     atom   14 type  1   force =     0.00000010    0.00000009   -3.00427607
     atom   15 type  1   force =     0.00001229   -0.00020446    3.00498636
     atom   16 type  1   force =     0.00000007    0.00000013    8.97357996
     The local contribution  to forces
     atom    1 type  1   force =     0.00001010   -0.00012310    8.84255114
     atom    2 type  1   force =     0.00005792   -0.00002187    2.94757378
     atom    3 type  1   force =     0.00006682   -0.00021564   -2.94741994
     atom    4 type  1   force =     0.00005735   -0.00002303   -8.84118636
     atom    5 type  1   force =     0.00000326    0.00007893    8.84268295
     atom    6 type  1   force =     0.00010289   -0.00001644    2.94765352
     atom    7 type  1   force =     0.00006224    0.00019726   -2.94724468
     atom    8 type  1   force =     0.00010407   -0.00001409   -8.84125393
     atom    9 type  1   force =     0.00010796   -0.00009999    8.84267933
     atom   10 type  1   force =     0.00005868   -0.00002129    2.94752164
     atom   11 type  1   force =     0.00004954   -0.00021660   -2.94724589
     atom   12 type  1   force =     0.00005811   -0.00002244   -8.84123367
     atom   13 type  1   force =     0.00010112    0.00010204    8.84255295
     atom   14 type  1   force =     0.00010365   -0.00001586    2.94745807
     atom   15 type  1   force =     0.00004496    0.00019630   -2.94741813
     atom   16 type  1   force =     0.00010483   -0.00001292   -8.84120276
     The core correction contribution to forces
     atom    1 type  1   force =     0.00000000    0.00000000    0.00000000
     atom    2 type  1   force =     0.00000000    0.00000000    0.00000000
     atom    3 type  1   force =     0.00000000    0.00000000    0.00000000
     atom    4 type  1   force =     0.00000000    0.00000000    0.00000000
     atom    5 type  1   force =     0.00000000    0.00000000    0.00000000
     atom    6 type  1   force =     0.00000000    0.00000000    0.00000000
     atom    7 type  1   force =     0.00000000    0.00000000    0.00000000
     atom    8 type  1   force =     0.00000000    0.00000000    0.00000000
     atom    9 type  1   force =     0.00000000    0.00000000    0.00000000
     atom   10 type  1   force =     0.00000000    0.00000000    0.00000000
     atom   11 type  1   force =     0.00000000    0.00000000    0.00000000
     atom   12 type  1   force =     0.00000000    0.00000000    0.00000000
     atom   13 type  1   force =     0.00000000    0.00000000    0.00000000
     atom   14 type  1   force =     0.00000000    0.00000000    0.00000000
     atom   15 type  1   force =     0.00000000    0.00000000    0.00000000
     atom   16 type  1   force =     0.00000000    0.00000000    0.00000000
     The Hubbard contrib.    to forces
     atom    1 type  1   force =     0.00000000    0.00000000    0.00000000
     atom    2 type  1   force =     0.00000000    0.00000000    0.00000000
     atom    3 type  1   force =     0.00000000    0.00000000    0.00000000
     atom    4 type  1   force =     0.00000000    0.00000000    0.00000000
     atom    5 type  1   force =     0.00000000    0.00000000    0.00000000
     atom    6 type  1   force =     0.00000000    0.00000000    0.00000000
     atom    7 type  1   force =     0.00000000    0.00000000    0.00000000
     atom    8 type  1   force =     0.00000000    0.00000000    0.00000000
     atom    9 type  1   force =     0.00000000    0.00000000    0.00000000
     atom   10 type  1   force =     0.00000000    0.00000000    0.00000000
     atom   11 type  1   force =     0.00000000    0.00000000    0.00000000
     atom   12 type  1   force =     0.00000000    0.00000000    0.00000000
     atom   13 type  1   force =     0.00000000    0.00000000    0.00000000
     atom   14 type  1   force =     0.00000000    0.00000000    0.00000000
     atom   15 type  1   force =     0.00000000    0.00000000    0.00000000
     atom   16 type  1   force =     0.00000000    0.00000000    0.00000000
     The SCF correction term to forces
     atom    1 type  1   force =    -0.00000002   -0.00000000    0.00000048
     atom    2 type  1   force =     0.00000000    0.00000000    0.00000032
     atom    3 type  1   force =     0.00000001   -0.00000003   -0.00000104
     atom    4 type  1   force =    -0.00000000    0.00000000   -0.00000053
     atom    5 type  1   force =    -0.00000001    0.00000001    0.00000049
     atom    6 type  1   force =    -0.00000000   -0.00000000    0.00000034
     atom    7 type  1   force =    -0.00000000    0.00000004   -0.00000102
     atom    8 type  1   force =    -0.00000000   -0.00000000   -0.00000050
     atom    9 type  1   force =     0.00000001   -0.00000001    0.00000049
     atom   10 type  1   force =     0.00000000    0.00000000    0.00000032
     atom   11 type  1   force =     0.00000000   -0.00000004   -0.00000102
     atom   12 type  1   force =    -0.00000000    0.00000000   -0.00000047
     atom   13 type  1   force =     0.00000002    0.00000000    0.00000048
     atom   14 type  1   force =    -0.00000000   -0.00000000    0.00000036
     atom   15 type  1   force =    -0.00000001    0.00000003   -0.00000104
     atom   16 type  1   force =    -0.00000000    0.00000000   -0.00000056

     Total force =     0.001020     Total SCF correction =     0.000003
     Energy error            =      1.3E-06 Ry
     Gradient error          =      3.8E-04 Ry/Bohr

     bfgs converged in   6 scf cycles and   5 bfgs steps
     (criteria: energy <  1.0E-05 Ry, force <  3.9E-04 Ry/Bohr)

     End of BFGS Geometry Optimization

     Final energy             =    -240.7561675662 Ry

     File ./Li/Lithium.bfgs deleted, as requested
Begin final coordinates

ATOMIC_POSITIONS (angstrom)
Li               0.9915947093        1.4023540870       19.8979439828
Li               1.9832882700        2.8047934300       22.3312264424
Li               0.9916433165        1.4023073310       24.7975724921
Li               1.9832882800        2.8047934500       27.2333019345
Li              -0.0000185649        4.2072467163       19.8978771855
Li               0.9916443500        5.6095863900       22.3312253469
Li               0.0000238262        4.2072730916       24.7974777918
Li               0.9916443300        5.6095863500       27.2332924773
Li               3.9665951849        1.4023397537       19.8978772455
Li               4.9582206700        2.8047934200       22.3312572295
Li               3.9665527838        1.4023133484       24.7974778118
Li               4.9582206800        2.8047934400       27.2333445924
Li               2.9749819107        4.2072323830       19.8979439528
Li               3.9665767500        5.6095863800       22.3312954095
Li               2.9749332935        4.2072791090       24.7975724621
Li               3.9665767300        5.6095863300       27.2332577000
End final coordinates

     Writing all to output data dir ./Li/Lithium.save/ :
     XML data file

     General routines

     Parallel routines

     PAW routines

     Environ routines

   This run was terminated on:   3:59:55   5Jan2025

   JOB DONE.