     Program PWSCF v.7.4 starts on 23Jan2025 at  0:35:54

     Reading input from espresso.pwi
Warning: card &CELL ignored
Warning: card    PRESS_CONV_THR   = 0.1 ignored
Warning: card    CELL_DOFREE      = 'ALL' ignored
Warning: card / ignored
Warning: card &FCP ignored
Warning: card / ignored
Warning: card &RISM ignored
Warning: card / ignored

     Current dimensions of program PWSCF are:
     Max number of different atomic species (ntypx) = 10
     Max number of k-points (npk) =  40000
     Max angular momentum in pseudopotentials (lmaxx) =  4

     IMPORTANT: XC functional enforced from input :
     Exchange-correlation= PBE
                           (   1   4   3   4   0   0   0)
     Any further DFT definition will be discarded
     Please, verify this is what you really want

     Found identity + (  0.5000  0.0000  0.0000) symmetry
     This is a supercell, fractional translations are disabled
     Message from routine setup:
     using ibrav=0 with symmetry is DISCOURAGED, use correct ibrav instead

     K-points division:     npool     =       2
     R & G space division:  proc/nbgrp/npool/nimage =     192
     Subspace diagonalization in iterative solution of the eigenvalue problem:
     a serial algorithm will be used

     Using Slab Decomposition

     bravais-lattice index     =            0
     lattice parameter (alat)  =      12.9830  a.u.
     unit-cell volume          =   21336.8733 (a.u.)^3
     number of atoms/cell      =           52
     number of atomic types    =            1
     number of electrons       =       156.00
     number of Kohn-Sham states=          117
     kinetic-energy cutoff     =      80.0000  Ry
     charge density cutoff     =     800.0000  Ry
     scf convergence threshold =      1.0E-06
     mixing beta               =       0.2000
     number of iterations used =            8  local-TF  mixing
     energy convergence thresh.=      1.0E-05
     force convergence thresh. =      3.9E-04
     Exchange-correlation= PBE
                           (   1   4   3   4   0   0   0)
     nstep                     =           50

     celldm(1)=  12.983009  celldm(2)=   0.000000  celldm(3)=   0.000000
     celldm(4)=   0.000000  celldm(5)=   0.000000  celldm(6)=   0.000000

     crystal axes: (cart. coord. in units of alat)
               a(1) = (   1.000000   0.000000   0.000000 )
               a(2) = (   0.000000   1.802776   0.000000 )
               a(3) = (   0.000000   0.000000   5.408327 )

     reciprocal axes: (cart. coord. in units 2 pi/alat)
               b(1) = (  1.000000  0.000000  0.000000 )
               b(2) = (  0.000000  0.554700  0.000000 )
               b(3) = (  0.000000  0.000000  0.184900 )

     PseudoPot. # 1 for Li read from file:
     /iridisfs/home/ba3g18/Repos/Pseudopotentials/pslibrary.1.0.0/pbe/PSEUDOPOTENTIALS/Li.pbe-sl-kjpaw_psl.1.0.0.UPF
     MD5 check sum: 3f4d2cafebb47c6c3aa8ed472e6f074d
     Pseudo is Projector augmented-wave, Zval =  3.0
     Generated using 'atomic' code by A. Dal Corso  v.7.4
     Shape of augmentation charge: PSQ
     Using radial grid of 1017 points,  4 beta functions with:
                l(1) =   0
                l(2) =   0
                l(3) =   1
                l(4) =   1
     Q(r) pseudized with 0 coefficients

     atomic species   valence    mass     pseudopotential
     Li                3.00     6.94000     Li( 1.00)

      2 Sym. Ops. (no inversion) found

   Cartesian axes

     site n.     atom                  positions (alat units)
         1        Li     tau(   1) = (  -0.0000000   1.1519621   3.4362604  )
         2        Li     tau(   2) = (  -0.0000000   1.5162594   3.1712558  )
         3        Li     tau(   3) = (  -0.0000000   0.4209672   3.2656755  )
         4        Li     tau(   4) = (  -0.0000000   0.8251109   3.0170094  )
         5        Li     tau(   5) = (  -0.0000000   1.2454979   2.7422319  )
         6        Li     tau(   6) = (  -0.0000000   1.6653654   2.4835265  )
         7        Li     tau(   7) = (  -0.0000000   0.1332504   2.8770815  )
         8        Li     tau(   8) = (  -0.0000000   0.5619295   2.5809773  )
         9        Li     tau(   9) = (  -0.0000000   0.9800420   2.3159817  )
        10        Li     tau(  10) = (  -0.0000000   1.3754954   2.0440167  )
        11        Li     tau(  11) = (  -0.0000000   0.2819117   2.1864474  )
        12        Li     tau(  12) = (  -0.0000000   0.6171953   1.8910459  )
        13        Li     tau(  13) = (  -0.0000000   0.1135154   3.5709666  )
        14        Li     tau(  14) = (   0.2500000   1.1694214   3.0923448  )
        15        Li     tau(  15) = (   0.2500000   1.5875336   2.8273495  )
        16        Li     tau(  16) = (   0.2500000   0.4840977   2.9248003  )
        17        Li     tau(  17) = (   0.2500000   0.9039651   2.6660944  )
        18        Li     tau(  18) = (   0.2500000   1.3243522   2.3913170  )
        19        Li     tau(  19) = (   0.2500000   1.7284963   2.1426515  )
        20        Li     tau(  20) = (   0.2499999   0.2134366   2.5312454  )
        21        Li     tau(  21) = (   0.2499999   0.6332040   2.2370711  )
        22        Li     tau(  22) = (   0.2500000   0.9975012   1.9720664  )
        23        Li     tau(  23) = (   0.2499999   1.5322681   3.5172813  )
        24        Li     tau(  24) = (   0.2499999   0.2331720   1.8373606  )
        25        Li     tau(  25) = (   0.2500001   0.7739683   3.3643096  )
        26        Li     tau(  26) = (   0.2500000   0.0647757   3.2218797  )
        27        Li     tau(  27) = (   0.5000000   1.1519623   3.4362604  )
        28        Li     tau(  28) = (   0.5000000   1.5162594   3.1712560  )
        29        Li     tau(  29) = (   0.5000000   0.4209672   3.2656754  )
        30        Li     tau(  30) = (   0.5000000   0.8251111   3.0170094  )
        31        Li     tau(  31) = (   0.5000000   1.2454979   2.7422320  )
        32        Li     tau(  32) = (   0.5000000   1.6653654   2.4835263  )
        33        Li     tau(  33) = (   0.5000000   0.1332504   2.8770815  )
        34        Li     tau(  34) = (   0.5000000   0.5619294   2.5809772  )
        35        Li     tau(  35) = (   0.5000000   0.9800418   2.3159817  )
        36        Li     tau(  36) = (   0.5000000   1.3754953   2.0440169  )
        37        Li     tau(  37) = (   0.5000000   0.2819118   2.1864472  )
        38        Li     tau(  38) = (   0.5000000   0.6171953   1.8910459  )
        39        Li     tau(  39) = (   0.5000000   0.1135154   3.5709665  )
        40        Li     tau(  40) = (   0.7500000   1.1694214   3.0923448  )
        41        Li     tau(  41) = (   0.7499999   1.5875336   2.8273495  )
        42        Li     tau(  42) = (   0.7500000   0.4840977   2.9248003  )
        43        Li     tau(  43) = (   0.7500000   0.9039651   2.6660944  )
        44        Li     tau(  44) = (   0.7500000   1.3243522   2.3913170  )
        45        Li     tau(  45) = (   0.7500000   1.7284963   2.1426515  )
        46        Li     tau(  46) = (   0.7500000   0.2134366   2.5312454  )
        47        Li     tau(  47) = (   0.7500000   0.6332040   2.2370711  )
        48        Li     tau(  48) = (   0.7500000   0.9975012   1.9720664  )
        49        Li     tau(  49) = (   0.7500001   1.5322681   3.5172813  )
        50        Li     tau(  50) = (   0.7500001   0.2331720   1.8373606  )
        51        Li     tau(  51) = (   0.7499999   0.7739683   3.3643096  )
        52        Li     tau(  52) = (   0.7500000   0.0647757   3.2218797  )

     number of k points=    24  Marzari-Vanderbilt smearing, width (Ry)=  0.0100
                       cart. coord. in units 2pi/alat
        k(    1) = (   0.0000000   0.0000000   0.0000000), wk =   0.0333333
        k(    2) = (   0.0000000   0.0924500   0.0000000), wk =   0.0666667
        k(    3) = (   0.0000000   0.1849000   0.0000000), wk =   0.0666667
        k(    4) = (   0.0000000  -0.2773500   0.0000000), wk =   0.0333333
        k(    5) = (   0.1000000   0.0000000   0.0000000), wk =   0.0666667
        k(    6) = (   0.1000000   0.0924500   0.0000000), wk =   0.1333333
        k(    7) = (   0.1000000   0.1849000   0.0000000), wk =   0.1333333
        k(    8) = (   0.1000000  -0.2773500   0.0000000), wk =   0.0666667
        k(    9) = (   0.2000000   0.0000000   0.0000000), wk =   0.0666667
        k(   10) = (   0.2000000   0.0924500   0.0000000), wk =   0.1333333
        k(   11) = (   0.2000000   0.1849000   0.0000000), wk =   0.1333333
        k(   12) = (   0.2000000  -0.2773500   0.0000000), wk =   0.0666667
        k(   13) = (   0.3000000   0.0000000   0.0000000), wk =   0.0666667
        k(   14) = (   0.3000000   0.0924500   0.0000000), wk =   0.1333333
        k(   15) = (   0.3000000   0.1849000   0.0000000), wk =   0.1333333
        k(   16) = (   0.3000000  -0.2773500   0.0000000), wk =   0.0666667
        k(   17) = (   0.4000000   0.0000000   0.0000000), wk =   0.0666667
        k(   18) = (   0.4000000   0.0924500   0.0000000), wk =   0.1333333
        k(   19) = (   0.4000000   0.1849000   0.0000000), wk =   0.1333333
        k(   20) = (   0.4000000  -0.2773500   0.0000000), wk =   0.0666667
        k(   21) = (  -0.5000000   0.0000000   0.0000000), wk =   0.0333333
        k(   22) = (  -0.5000000   0.0924500   0.0000000), wk =   0.0666667
        k(   23) = (  -0.5000000   0.1849000   0.0000000), wk =   0.0666667
        k(   24) = (  -0.5000000  -0.2773500   0.0000000), wk =   0.0333333

     Initial potential from superposition of free atoms

     starting charge     155.7603, renormalised to     156.0000

     negative rho (up, down):  3.586E-03 0.000E+00
     Starting wfcs are  260 randomized atomic wfcs
     Checking if some PAW data can be deallocated...

     Self-consistent Calculation

     iteration #  1     ecut=    80.00 Ry     beta= 0.20
     Davidson diagonalization with overlap
     ethr =  1.00E-02,  avg # of iterations =  3.8

     negative rho (up, down):  2.124E-04 0.000E+00

     total energy              =    -782.21943447 Ry
     estimated scf accuracy    <       6.65396233 Ry

[...]

     iteration # 12     ecut=    80.00 Ry     beta= 0.20
     Davidson diagonalization with overlap
     c_bands:  2 eigenvalues not converged
     ethr =  8.89E-05,  avg # of iterations =  5.4

[...]

     iteration # 23     ecut=    80.00 Ry     beta= 0.20
     Davidson diagonalization with overlap
     c_bands:  1 eigenvalues not converged
     c_bands:  1 eigenvalues not converged
     ethr =  1.01E-09,  avg # of iterations =  6.3

[...]

     total energy              =    -781.90588050 Ry
     estimated scf accuracy    <       0.00000121 Ry

     iteration # 24     ecut=    80.00 Ry     beta= 0.20
     Davidson diagonalization with overlap
     ethr =  7.79E-10,  avg # of iterations =  3.0

     negative rho (up, down):  3.538E-04 0.000E+00

     End of self-consistent calculation

          k = 0.0000 0.0000 0.0000 (257949 PWs)   bands (ev):

   -49.0533 -49.0533 -49.0519 -49.0519 -48.6991 -48.6991 -48.6974 -48.6974
   -48.6939 -48.6939 -48.6923 -48.6923 -48.6732 -48.6731 -48.6720 -48.6719
   -48.3585 -48.3585 -48.3569 -48.3569 -48.1692 -48.1661 -48.1624 -48.1624
   -48.1591 -48.1556 -48.1555 -48.1552 -48.1463 -48.1457 -48.1454 -48.1451
   -48.1451 -48.1445 -48.1419 -48.1418 -48.1377 -48.1363 -48.1357 -48.1357
   -48.1297 -48.1297 -48.1292 -48.1284 -48.1199 -48.1161 -48.1161 -48.1133
   -48.0997 -48.0994 -48.0994 -48.0992  -5.0786  -4.6825  -4.3475  -4.3390
    -4.0994  -3.9492  -3.8117  -3.3726  -3.2720  -2.9234  -2.6680  -2.6680
    -2.4597  -2.4000  -2.2946  -2.2946  -2.2159  -2.1945  -2.0196  -2.0196
    -2.0007  -2.0007  -1.9386  -1.8253  -1.8253  -1.8178  -1.7853  -1.6862
    -1.6862  -1.5602  -1.5602  -1.4198  -1.3681  -1.3681  -1.2842  -1.2127
    -1.1329  -1.1328  -1.0298  -0.9786  -0.8293  -0.7161  -0.7161  -0.4890
    -0.4825  -0.4825  -0.1528  -0.0547  -0.0547   0.0518   0.0518   0.2661
     0.3241   0.8621   0.9938   1.0355   1.0355   1.1180   1.2428   1.2710
     1.4828   1.5288   1.5288   1.6003   1.6003

[...]

          k = 0.4000-0.2774 0.0000 (257696 PWs)   bands (ev):

[...]

          k =-0.5000 0.0000 0.0000 (257788 PWs)   bands (ev):

[...]

          k =-0.5000-0.2774 0.0000 (257568 PWs)   bands (ev):

   -49.0526 -49.0526 -49.0526 -49.0526 -48.6983 -48.6982 -48.6982 -48.6982
   -48.6931 -48.6931 -48.6931 -48.6931 -48.6726 -48.6726 -48.6726 -48.6725
   -48.3577 -48.3577 -48.3577 -48.3576 -48.1660 -48.1660 -48.1643 -48.1643
   -48.1582 -48.1582 -48.1542 -48.1542 -48.1455 -48.1455 -48.1452 -48.1452
   -48.1437 -48.1437 -48.1436 -48.1436 -48.1368 -48.1368 -48.1361 -48.1360
   -48.1293 -48.1293 -48.1290 -48.1290 -48.1187 -48.1187 -48.1139 -48.1139
   -48.0995 -48.0995 -48.0994 -48.0993  -4.3043  -4.3043  -4.3027  -4.3027
    -3.9072  -3.9072  -3.8949  -3.8949  -3.2676  -3.2676  -3.1795  -3.1795
    -2.8485  -2.8485  -2.8459  -2.8459  -2.5026  -2.5026  -2.3950  -2.3950
    -2.3814  -2.3814  -2.2306  -2.2306  -1.7794  -1.7794  -1.6356  -1.6356
    -1.4448  -1.4448  -1.1980  -1.1980  -0.8233  -0.8233  -0.7741  -0.7741
    -0.4656  -0.4656  -0.4377  -0.4377  -0.3815  -0.3815  -0.2247  -0.2247
     0.0908   0.0908   0.0926   0.0926   0.3140   0.3140   0.3889   0.3889
     0.4271   0.4271   0.4713   0.4713   1.0310   1.0310   1.1312   1.1312
     1.4695   1.4703   1.4930   1.4930   1.5372

     the Fermi energy is    -1.6281 ev

!    total energy              =    -781.90588058 Ry
     total all-electron energy =      -781.906303 Ry
     estimated scf accuracy    <       0.00000056 Ry
     smearing contrib. (-TS)   =      -0.00105988 Ry
     internal energy E=F+TS    =    -781.90482070 Ry

     The total energy is F=E-TS. E is the sum of the following terms:
     one-electron contribution =   -5767.65317341 Ry
     hartree contribution      =    2805.46181673 Ry
     xc contribution           =    -186.33709405 Ry
     ewald contribution        =    2362.03866861 Ry
     one-center paw contrib.   =       4.58496142 Ry

     convergence has been achieved in  24 iterations

     Forces acting on atoms (cartesian axes, Ry/au):

     atom    1 type  1   force =     0.00000000   -0.00006831   -0.00006522
     atom    2 type  1   force =     0.00000000    0.00012630    0.00012813
     atom    3 type  1   force =     0.00000000    0.00003927    0.00013170
     atom    4 type  1   force =     0.00000000    0.00008849    0.00032472
     atom    5 type  1   force =     0.00000000    0.00004699    0.00006683
     atom    6 type  1   force =     0.00000000   -0.00003191   -0.00010128
     atom    7 type  1   force =     0.00000000    0.00000113    0.00009155
     atom    8 type  1   force =     0.00000000    0.00003515   -0.00020493
     atom    9 type  1   force =     0.00000000   -0.00008118   -0.00023630
     atom   10 type  1   force =     0.00000000   -0.00011824    0.00006755
     atom   11 type  1   force =     0.00000000    0.00004614   -0.00016124
     atom   12 type  1   force =     0.00000000   -0.00008569    0.00028368
     atom   13 type  1   force =     0.00000000   -0.00012400   -0.00032037
     atom   14 type  1   force =     0.00000008    0.00008043    0.00023483
     atom   15 type  1   force =    -0.00000118   -0.00003396    0.00020592
     atom   16 type  1   force =    -0.00000134    0.00003169    0.00010170
     atom   17 type  1   force =     0.00000065   -0.00004946   -0.00006611
     atom   18 type  1   force =     0.00000005   -0.00008914   -0.00032129
     atom   19 type  1   force =    -0.00000001   -0.00003774   -0.00013012
     atom   20 type  1   force =     0.00000109   -0.00000146   -0.00009312
     atom   21 type  1   force =    -0.00000088   -0.00012534   -0.00012766
     atom   22 type  1   force =     0.00000029    0.00006775    0.00006414
     atom   23 type  1   force =     0.00000096    0.00008821   -0.00028359
     atom   24 type  1   force =     0.00000054    0.00012281    0.00032048
     atom   25 type  1   force =    -0.00000074    0.00012158   -0.00006957
     atom   26 type  1   force =     0.00000190   -0.00004699    0.00016270
     atom   27 type  1   force =     0.00000000   -0.00006788   -0.00006349
     atom   28 type  1   force =     0.00000000    0.00012661    0.00012772
     atom   29 type  1   force =     0.00000000    0.00003860    0.00012970
     atom   30 type  1   force =     0.00000000    0.00008844    0.00032202
     atom   31 type  1   force =     0.00000000    0.00004582    0.00006751
     atom   32 type  1   force =     0.00000000   -0.00003138   -0.00010373
     atom   33 type  1   force =     0.00000000    0.00000020    0.00009152
     atom   34 type  1   force =     0.00000000    0.00003324   -0.00020703
     atom   35 type  1   force =     0.00000000   -0.00007725   -0.00023606
     atom   36 type  1   force =     0.00000000   -0.00012170    0.00006795
     atom   37 type  1   force =     0.00000000    0.00004274   -0.00016122
     atom   38 type  1   force =     0.00000000   -0.00008687    0.00028541
     atom   39 type  1   force =     0.00000000   -0.00012148   -0.00032171
     atom   40 type  1   force =    -0.00000008    0.00008043    0.00023483
     atom   41 type  1   force =     0.00000118   -0.00003396    0.00020592
     atom   42 type  1   force =     0.00000134    0.00003169    0.00010170
     atom   43 type  1   force =    -0.00000065   -0.00004946   -0.00006611
     atom   44 type  1   force =    -0.00000005   -0.00008914   -0.00032129
     atom   45 type  1   force =     0.00000001   -0.00003774   -0.00013012
     atom   46 type  1   force =    -0.00000109   -0.00000146   -0.00009312
     atom   47 type  1   force =     0.00000088   -0.00012534   -0.00012766
     atom   48 type  1   force =    -0.00000029    0.00006775    0.00006414
     atom   49 type  1   force =    -0.00000096    0.00008821   -0.00028359
     atom   50 type  1   force =    -0.00000054    0.00012281    0.00032048
     atom   51 type  1   force =     0.00000074    0.00012158   -0.00006957
     atom   52 type  1   force =    -0.00000190   -0.00004699    0.00016270

     Total force =     0.001493     Total SCF correction =     0.000298
     SCF correction compared to forces is large: reduce conv_thr to get better values

     BFGS Geometry Optimization
     Energy error            =      2.2E-06 Ry
     Gradient error          =      3.2E-04 Ry/Bohr

     bfgs converged in   1 scf cycles and   0 bfgs steps
     (criteria: energy <  1.0E-05 Ry, force <  3.9E-04 Ry/Bohr)

     End of BFGS Geometry Optimization

     Final energy             =    -781.9058805801 Ry
Begin final coordinates

ATOMIC_POSITIONS (angstrom)
Li              -0.0000000600        7.9143398300       23.6081823600
Li              -0.0000000600       10.4171759700       21.7875182700
Li              -0.0000000600        2.8921765400       22.4362112300
Li              -0.0000000600        5.6687699700       20.7277973900
Li              -0.0000000600        8.5569597900       18.8399901800
Li              -0.0000000600       11.4415803600       17.0626029200
Li              -0.0000000600        0.9154717500       19.7664489900
Li              -0.0000000600        3.8606310100       17.7321203000
Li              -0.0000000600        6.7331948200       15.9115182500
Li              -0.0000000600        9.4500832100       14.0430336200
Li              -0.0000000600        1.9368217500       15.0215764800
Li              -0.0000000600        4.2403246600       12.9920764800
Li              -0.0000000600        0.7798865200       24.5336560200
Li               1.7175779400        8.0342901900       21.2453750500
Li               1.7175783500       10.9068520100       19.4247747300
Li               1.7175781600        3.3259025300       20.0942921000
Li               1.7175779300        6.2105228600       18.3169017500
Li               1.7175782700        9.0987132600       16.4290949500
Li               1.7175779600       11.8753093900       14.7206850400
Li               1.7175777100        1.4663762900       17.3904466000
Li               1.7175777200        4.3503094100       15.3693774500
Li               1.7175781400        6.8531452600       13.5487121500
Li               1.7175774200       10.5271604600       24.1648215700
Li               1.7175773800        1.6019642800       12.6232415700
Li               1.7175789100        5.3174042300       23.1138582300
Li               1.7175778200        0.4450293100       22.1353203900
Li               3.4351561700        7.9143408900       23.6081824200
Li               3.4351561700       10.4171756100       21.7875198600
Li               3.4351561700        2.8921765300       22.4362104100
Li               3.4351561700        5.6687711000       20.7277970200
Li               3.4351561700        8.5569594000       18.8399904000
Li               3.4351561700       11.4415808300       17.0626020100
Li               3.4351561700        0.9154720900       19.7664486800
Li               3.4351561700        3.8606305300       17.7321199900
Li               3.4351561600        6.7331936200       15.9115181600
Li               3.4351561700        9.4500824600       14.0430346000
Li               3.4351561700        1.9368220600       15.0215756300
Li               3.4351561700        4.2403245300       12.9920764900
Li               3.4351561700        0.7798859300       24.5336555900
Li               5.1527344000        8.0342901900       21.2453750600
Li               5.1527339900       10.9068520100       19.4247747300
Li               5.1527341800        3.3259025300       20.0942921100
Li               5.1527344000        6.2105228600       18.3169017500
Li               5.1527340600        9.0987132600       16.4290949500
Li               5.1527343800       11.8753093800       14.7206850400
Li               5.1527346300        1.4663762800       17.3904466000
Li               5.1527346200        4.3503094100       15.3693774500
Li               5.1527341900        6.8531452600       13.5487121600
Li               5.1527349100       10.5271604500       24.1648215700
Li               5.1527349600        1.6019642900       12.6232415700
Li               5.1527334200        5.3174042300       23.1138582300
Li               5.1527345200        0.4450293100       22.1353203900
End final coordinates

     Message from routine punch:
     Nothing written, as per user request (disk_io='none')

     General routines

     Parallel routines

   This run was terminated on:   0:40:46  23Jan2025

   JOB DONE.