     Program PWSCF v.7.4 starts on  5Jan2025 at 20:37:51

     Reading input from espresso.pwi
Warning: card &CELL ignored
Warning: card    PRESS_CONV_THR   = 0.1 ignored
Warning: card    CELL_DOFREE      = 'ALL' ignored
Warning: card / ignored
Warning: card &FCP ignored
Warning: card / ignored
Warning: card &RISM ignored
Warning: card / ignored

     Current dimensions of program PWSCF are:
     Max number of different atomic species (ntypx) = 10
     Max number of k-points (npk) =  40000
     Max angular momentum in pseudopotentials (lmaxx) =  4

     IMPORTANT: XC functional enforced from input :
     Exchange-correlation= PBE
                           (   1   4   3   4   0   0   0)
     Any further DFT definition will be discarded
     Please, verify this is what you really want

     Reading input from environ.in:
     * using ionic solvent mode
     * setting boundary derivatives method to SSCS default
     * setting electrolyte-boundary derivatives method to SSCS default

Environ Warning (1001): card EOF ignored

     K-points division:     npool     =       2
     R & G space division:  proc/nbgrp/npool/nimage =     256
     Subspace diagonalization in iterative solution of the eigenvalue problem:
     one sub-group per band group will be used

     Using Slab Decomposition

     bravais-lattice index     =           12
     lattice parameter (alat)  =      18.3607  a.u.
     unit-cell volume          =   35212.2554 (a.u.)^3
     number of atoms/cell      =           68
     number of atomic types    =            1
     number of electrons       =       204.00
     number of Kohn-Sham states=          153
     kinetic-energy cutoff     =      80.0000  Ry
     charge density cutoff     =     800.0000  Ry
     scf convergence threshold =      1.0E-14
     mixing beta               =       0.2000
     number of iterations used =            8  local-TF  mixing
     Exchange-correlation= PBE
                           (   1   4   3   4   0   0   0)

                                  Environ Setup Summary

          O. Andreussi, I. Dabo and N. Marzari, J. Chem. Phys. 136, 064102 (2012)
          F. Nattino, M. Truscott, N. Marzari, and O. Andreussi, J. Chem. Phys. 150, 041722 (2019)

     in publications or presentations arising from this work.

     Parameters

     compensation onset threshold      =               0.1000E+00
     static permittivity               =                    89.90
     surface tension in input (dyn/cm) =                    37.30
     surface tension in internal units =               0.4792E-04

     Solvent Boundary

     solvent mode                      =                    ionic
     derivatives method                =                   lowmem
     electrolyte derivatives method    =                   lowmem
     numerical core for derivatives    =                      fft
     switching function adopted        =                     SCCS
     density limit for vacuum region   =               0.5000E-02
     density limit for bulk solvent    =               0.1000E-03
     soft-sphere radius mode           =                    bondi
     soft-sphere softness              =                     0.50
     alpha                             =                     1.32

     Electrostatic Setup

     electrostatic problem to solve    =                    modpb
     numerical solver adopted          =                   newton
     type of auxiliary density adopted =                     none
     numerical core for poisson        =                      fft
     adopting a nested solver scheme
     inner solver                      =                       cg
     inner core                        =                      fft
     type of pbc corrections           =                parabolic
     numerical core for corrections    =                      1da

     >>>>> Grand-Canonical SCF is activated <<<<<
     Initial Total Charge  =     0.000000 e
     Target Fermi Energy   =    -1.904000 eV
     Thr. of Fermi Energy  =     0.001000 eV
     Wave-shift of Kerker  =     0.400000 bohr^-1
     Wave-shift of Hartree =     1.500000 bohr^-1
     Mixing Rate of Fermi  =     0.050000

     celldm(1)=  18.360747  celldm(2)=   1.060660  celldm(3)=   5.518976
     celldm(4)=  -0.235702  celldm(5)=   0.000000  celldm(6)=   0.000000

     crystal axes: (cart. coord. in units of alat)
               a(1) = (   1.000000   0.000000   0.000000 )
               a(2) = (  -0.250000   1.030776   0.000000 )
               a(3) = (   0.000000   0.000000   5.518976 )

     reciprocal axes: (cart. coord. in units 2 pi/alat)
               b(1) = (  1.000000  0.242536 -0.000000 )
               b(2) = (  0.000000  0.970143  0.000000 )
               b(3) = (  0.000000 -0.000000  0.181193 )

     PseudoPot. # 1 for Li read from file:
     /work/e89/e89/ba3g18/Repos/Pseudopotentials/Pslibrary/Li.pbe-sl-kjpaw_psl.1.0.0.UPF
     MD5 check sum: 3f4d2cafebb47c6c3aa8ed472e6f074d
     Pseudo is Projector augmented-wave, Zval =  3.0
     Generated using 'atomic' code by A. Dal Corso  v.7.4
     Shape of augmentation charge: PSQ
     Using radial grid of 1017 points,  4 beta functions with:
                l(1) =   0
                l(2) =   0
                l(3) =   1
                l(4) =   1
     Q(r) pseudized with 0 coefficients

     atomic species   valence    mass     pseudopotential
     Li                3.00     6.94000     Li( 1.00)

     No symmetry found

                                    s                        frac. trans.

      isym =  1     identity

 cryst.   s( 1) = (     1          0          0      )
                  (     0          1          0      )
                  (     0          0          1      )

 cart.    s( 1) = (  1.0000000  0.0000000  0.0000000 )
                  (  0.0000000  1.0000000  0.0000000 )
                  (  0.0000000  0.0000000  1.0000000 )

     point group C_1 (1)
     there are  1 classes
     the character table:

       E
A      1.00

     the symmetry operations in each class and the name of the first element:

     E        1
          identity

   Cartesian axes

     site n.     atom                  positions (alat units)
         1        Li     tau(   1) = (  -0.0002560   0.0086755   2.0671584  )
         2        Li     tau(   2) = (   0.0001929   0.6082964   3.4167417  )
         3        Li     tau(   3) = (   0.2502120   0.7831701   3.2702465  )
         4        Li     tau(   4) = (   0.2502833   0.1875956   3.3234742  )
         5        Li     tau(   5) = (   0.0002037   0.3676580   3.1576735  )
         6        Li     tau(   6) = (   0.2501625   0.5456802   3.0034977  )
         7        Li     tau(   7) = (   0.2499504   0.9059256   2.6626587  )
         8        Li     tau(   8) = (   0.0002119   0.9736669   3.0817736  )
         9        Li     tau(   9) = (   0.0001058   0.1207612   2.9118277  )
        10        Li     tau(  10) = (   0.2499810   0.3024483   2.7368541  )
        11        Li     tau(  11) = (  -0.0001647   0.4870467   2.5536795  )
        12        Li     tau(  12) = (   0.2498120   0.6607149   2.3947468  )
        13        Li     tau(  13) = (   0.0000364   0.7302345   2.8202150  )
        14        Li     tau(  14) = (   0.2498330   0.0585249   2.4858383  )
        15        Li     tau(  15) = (  -0.0002594   0.2460187   2.3012495  )
        16        Li     tau(  16) = (   0.2497828   0.4105761   2.1362373  )
        17        Li     tau(  17) = (  -0.0002098   0.8544840   2.2124454  )
        18        Li     tau(  18) = (   0.0002522   0.0571534   3.2177246  )
        19        Li     tau(  19) = (   0.0001890   0.6732294   3.1242313  )
        20        Li     tau(  20) = (   0.2501646   0.8468959   2.9652985  )
        21        Li     tau(  21) = (   0.2501669   0.2446402   3.0331402  )
        22        Li     tau(  22) = (   0.0000486   0.4280157   2.8563169  )
        23        Li     tau(  23) = (   0.2499636   0.6037042   2.6987623  )
        24        Li     tau(  24) = (   0.2497959   0.9662874   2.3613021  )
        25        Li     tau(  25) = (   0.0000190   1.0314891   2.7821235  )
        26        Li     tau(  26) = (  -0.0001105   0.1824055   2.6071449  )
        27        Li     tau(  27) = (   0.2497882   0.3602756   2.4372052  )
        28        Li     tau(  28) = (  -0.0002121   0.5507796   2.2487306  )
        29        Li     tau(  29) = (   0.2498075   0.7256535   2.1022375  )
        30        Li     tau(  30) = (  -0.0001623   0.7882615   2.5154798  )
        31        Li     tau(  31) = (   0.2497168   0.1155784   2.1955094  )
        32        Li     tau(  32) = (   0.0002687   0.2945036   3.4518181  )
        33        Li     tau(  33) = (   0.2502106   0.4794650   3.3065324  )
        34        Li     tau(  34) = (   0.0002158   0.9233735   3.3827394  )
        35        Li     tau(  35) = (   0.4997262   0.0086687   2.0671586  )
        36        Li     tau(  36) = (   0.5001956   0.6082929   3.4167469  )
        37        Li     tau(  37) = (   0.7502192   0.7831704   3.2702465  )
        38        Li     tau(  38) = (   0.7502845   0.1875959   3.3234861  )
        39        Li     tau(  39) = (   0.5002008   0.3676581   3.1576726  )
        40        Li     tau(  40) = (   0.7501587   0.5456804   3.0034934  )
        41        Li     tau(  41) = (   0.7499556   0.9059271   2.6626596  )
        42        Li     tau(  42) = (   0.5002112   0.9736689   3.0817634  )
        43        Li     tau(  43) = (   0.5001107   0.1207616   2.9118291  )
        44        Li     tau(  44) = (   0.7499829   0.3024500   2.7368604  )
        45        Li     tau(  45) = (   0.4998323   0.4870472   2.5536779  )
        46        Li     tau(  46) = (   0.7498084   0.6607133   2.3947403  )
        47        Li     tau(  47) = (   0.5000381   0.7302356   2.8202198  )
        48        Li     tau(  48) = (   0.7498322   0.0585286   2.4858201  )
        49        Li     tau(  49) = (   0.4997501   0.2460185   2.3012496  )
        50        Li     tau(  50) = (   0.7497855   0.4105858   2.1362456  )
        51        Li     tau(  51) = (   0.4997900   0.8544867   2.2124491  )
        52        Li     tau(  52) = (   0.5002571   0.0571534   3.2177253  )
        53        Li     tau(  53) = (   0.5001904   0.6732329   3.1242380  )
        54        Li     tau(  54) = (   0.7501677   0.8468971   2.9652988  )
        55        Li     tau(  55) = (   0.7501680   0.2446418   3.0331484  )
        56        Li     tau(  56) = (   0.5000454   0.4280144   2.8563148  )
        57        Li     tau(  57) = (   0.7499618   0.6037045   2.6987576  )
        58        Li     tau(  58) = (   0.7497996   0.9662881   2.3613017  )
        59        Li     tau(  59) = (   0.5000173   1.0314900   2.7821099  )
        60        Li     tau(  60) = (   0.4998940   0.1824062   2.6071458  )
        61        Li     tau(  61) = (   0.7497887   0.3602780   2.4372113  )
        62        Li     tau(  62) = (   0.4997807   0.5507781   2.2487281  )
        63        Li     tau(  63) = (   0.7498038   0.7256605   2.1022331  )
        64        Li     tau(  64) = (   0.4998410   0.7882650   2.5154847  )
[...]
     atom   58 type  1   force =     0.00009553    0.01875558    8.61342648
     atom   59 type  1   force =    -0.00014099    0.02925986   -0.50956274
     atom   60 type  1   force =    -0.00004870   -0.02119421    3.34046639
     atom   61 type  1   force =     0.00009535   -0.05344166    7.09995666
     atom   62 type  1   force =    -0.00017441    0.13372889   11.36766588
     atom   63 type  1   force =     0.00010624    0.24961676   14.06639596
     atom   64 type  1   force =    -0.00029016    0.05030748    5.31099389
     atom   65 type  1   force =    -0.00010694   -0.22875276   12.39896787
     atom   66 type  1   force =    -0.00013604    0.20895906  -14.56021978
     atom   67 type  1   force =     0.00008989   -0.14649241  -11.94399977
     atom   68 type  1   force =    -0.00006925   -0.03603418  -13.64663269
     The core correction contribution to forces
     atom    1 type  1   force =     0.00000000    0.00000000    0.00000000
     atom    2 type  1   force =     0.00000000    0.00000000    0.00000000
     atom    3 type  1   force =     0.00000000    0.00000000    0.00000000
     atom    4 type  1   force =     0.00000000    0.00000000    0.00000000
     atom    5 type  1   force =     0.00000000    0.00000000    0.00000000
     atom    6 type  1   force =     0.00000000    0.00000000    0.00000000
     atom    7 type  1   force =     0.00000000    0.00000000    0.00000000
     atom    8 type  1   force =     0.00000000    0.00000000    0.00000000
     atom    9 type  1   force =     0.00000000    0.00000000    0.00000000
     atom   10 type  1   force =     0.00000000    0.00000000    0.00000000
     atom   11 type  1   force =     0.00000000    0.00000000    0.00000000
     atom   12 type  1   force =     0.00000000    0.00000000    0.00000000
     atom   13 type  1   force =     0.00000000    0.00000000    0.00000000
     atom   14 type  1   force =     0.00000000    0.00000000    0.00000000
     atom   15 type  1   force =     0.00000000    0.00000000    0.00000000
     atom   16 type  1   force =     0.00000000    0.00000000    0.00000000
     atom   17 type  1   force =     0.00000000    0.00000000    0.00000000
     atom   18 type  1   force =     0.00000000    0.00000000    0.00000000
     atom   19 type  1   force =     0.00000000    0.00000000    0.00000000
     atom   20 type  1   force =     0.00000000    0.00000000    0.00000000
     atom   21 type  1   force =     0.00000000    0.00000000    0.00000000
     atom   22 type  1   force =     0.00000000    0.00000000    0.00000000
     atom   23 type  1   force =     0.00000000    0.00000000    0.00000000
     atom   24 type  1   force =     0.00000000    0.00000000    0.00000000
     atom   25 type  1   force =     0.00000000    0.00000000    0.00000000
     atom   26 type  1   force =     0.00000000    0.00000000    0.00000000
     atom   27 type  1   force =     0.00000000    0.00000000    0.00000000
     atom   28 type  1   force =     0.00000000    0.00000000    0.00000000
     atom   29 type  1   force =     0.00000000    0.00000000    0.00000000
     atom   30 type  1   force =     0.00000000    0.00000000    0.00000000
     atom   31 type  1   force =     0.00000000    0.00000000    0.00000000
     atom   32 type  1   force =     0.00000000    0.00000000    0.00000000
     atom   33 type  1   force =     0.00000000    0.00000000    0.00000000
     atom   34 type  1   force =     0.00000000    0.00000000    0.00000000
     atom   35 type  1   force =     0.00000000    0.00000000    0.00000000
     atom   36 type  1   force =     0.00000000    0.00000000    0.00000000
     atom   37 type  1   force =     0.00000000    0.00000000    0.00000000
     atom   38 type  1   force =     0.00000000    0.00000000    0.00000000
     atom   39 type  1   force =     0.00000000    0.00000000    0.00000000
     atom   40 type  1   force =     0.00000000    0.00000000    0.00000000
     atom   41 type  1   force =     0.00000000    0.00000000    0.00000000
     atom   42 type  1   force =     0.00000000    0.00000000    0.00000000
     atom   43 type  1   force =     0.00000000    0.00000000    0.00000000
     atom   44 type  1   force =     0.00000000    0.00000000    0.00000000
     atom   45 type  1   force =     0.00000000    0.00000000    0.00000000
     atom   46 type  1   force =     0.00000000    0.00000000    0.00000000
     atom   47 type  1   force =     0.00000000    0.00000000    0.00000000
     atom   48 type  1   force =     0.00000000    0.00000000    0.00000000
     atom   49 type  1   force =     0.00000000    0.00000000    0.00000000
     atom   50 type  1   force =     0.00000000    0.00000000    0.00000000
     atom   51 type  1   force =     0.00000000    0.00000000    0.00000000
     atom   52 type  1   force =     0.00000000    0.00000000    0.00000000
     atom   53 type  1   force =     0.00000000    0.00000000    0.00000000
     atom   54 type  1   force =     0.00000000    0.00000000    0.00000000
     atom   55 type  1   force =     0.00000000    0.00000000    0.00000000
     atom   56 type  1   force =     0.00000000    0.00000000    0.00000000
     atom   57 type  1   force =     0.00000000    0.00000000    0.00000000
     atom   58 type  1   force =     0.00000000    0.00000000    0.00000000
     atom   59 type  1   force =     0.00000000    0.00000000    0.00000000
     atom   60 type  1   force =     0.00000000    0.00000000    0.00000000
     atom   61 type  1   force =     0.00000000    0.00000000    0.00000000
     atom   62 type  1   force =     0.00000000    0.00000000    0.00000000
     atom   63 type  1   force =     0.00000000    0.00000000    0.00000000
     atom   64 type  1   force =     0.00000000    0.00000000    0.00000000
     atom   65 type  1   force =     0.00000000    0.00000000    0.00000000
     atom   66 type  1   force =     0.00000000    0.00000000    0.00000000
     atom   67 type  1   force =     0.00000000    0.00000000    0.00000000
     atom   68 type  1   force =     0.00000000    0.00000000    0.00000000
     The Hubbard contrib.    to forces
     atom    1 type  1   force =     0.00000000    0.00000000    0.00000000
     atom    2 type  1   force =     0.00000000    0.00000000    0.00000000
     atom    3 type  1   force =     0.00000000    0.00000000    0.00000000
     atom    4 type  1   force =     0.00000000    0.00000000    0.00000000
     atom    5 type  1   force =     0.00000000    0.00000000    0.00000000
     atom    6 type  1   force =     0.00000000    0.00000000    0.00000000
     atom    7 type  1   force =     0.00000000    0.00000000    0.00000000
     atom    8 type  1   force =     0.00000000    0.00000000    0.00000000
     atom    9 type  1   force =     0.00000000    0.00000000    0.00000000
     atom   10 type  1   force =     0.00000000    0.00000000    0.00000000
     atom   11 type  1   force =     0.00000000    0.00000000    0.00000000
     atom   12 type  1   force =     0.00000000    0.00000000    0.00000000
     atom   13 type  1   force =     0.00000000    0.00000000    0.00000000
     atom   14 type  1   force =     0.00000000    0.00000000    0.00000000
     atom   15 type  1   force =     0.00000000    0.00000000    0.00000000
     atom   16 type  1   force =     0.00000000    0.00000000    0.00000000
     atom   17 type  1   force =     0.00000000    0.00000000    0.00000000
     atom   18 type  1   force =     0.00000000    0.00000000    0.00000000
     atom   19 type  1   force =     0.00000000    0.00000000    0.00000000
     atom   20 type  1   force =     0.00000000    0.00000000    0.00000000
     atom   21 type  1   force =     0.00000000    0.00000000    0.00000000
     atom   22 type  1   force =     0.00000000    0.00000000    0.00000000
     atom   23 type  1   force =     0.00000000    0.00000000    0.00000000
     atom   24 type  1   force =     0.00000000    0.00000000    0.00000000
     atom   25 type  1   force =     0.00000000    0.00000000    0.00000000
     atom   26 type  1   force =     0.00000000    0.00000000    0.00000000
     atom   27 type  1   force =     0.00000000    0.00000000    0.00000000
     atom   28 type  1   force =     0.00000000    0.00000000    0.00000000
     atom   29 type  1   force =     0.00000000    0.00000000    0.00000000
     atom   30 type  1   force =     0.00000000    0.00000000    0.00000000
     atom   31 type  1   force =     0.00000000    0.00000000    0.00000000
     atom   32 type  1   force =     0.00000000    0.00000000    0.00000000
     atom   33 type  1   force =     0.00000000    0.00000000    0.00000000
     atom   34 type  1   force =     0.00000000    0.00000000    0.00000000
     atom   35 type  1   force =     0.00000000    0.00000000    0.00000000
     atom   36 type  1   force =     0.00000000    0.00000000    0.00000000
     atom   37 type  1   force =     0.00000000    0.00000000    0.00000000
     atom   38 type  1   force =     0.00000000    0.00000000    0.00000000
     atom   39 type  1   force =     0.00000000    0.00000000    0.00000000
     atom   40 type  1   force =     0.00000000    0.00000000    0.00000000
     atom   41 type  1   force =     0.00000000    0.00000000    0.00000000
     atom   42 type  1   force =     0.00000000    0.00000000    0.00000000
     atom   43 type  1   force =     0.00000000    0.00000000    0.00000000
     atom   44 type  1   force =     0.00000000    0.00000000    0.00000000
     atom   45 type  1   force =     0.00000000    0.00000000    0.00000000
     atom   46 type  1   force =     0.00000000    0.00000000    0.00000000
     atom   47 type  1   force =     0.00000000    0.00000000    0.00000000
     atom   48 type  1   force =     0.00000000    0.00000000    0.00000000
     atom   49 type  1   force =     0.00000000    0.00000000    0.00000000
     atom   50 type  1   force =     0.00000000    0.00000000    0.00000000
     atom   51 type  1   force =     0.00000000    0.00000000    0.00000000
     atom   52 type  1   force =     0.00000000    0.00000000    0.00000000
     atom   53 type  1   force =     0.00000000    0.00000000    0.00000000
     atom   54 type  1   force =     0.00000000    0.00000000    0.00000000
     atom   55 type  1   force =     0.00000000    0.00000000    0.00000000
     atom   56 type  1   force =     0.00000000    0.00000000    0.00000000
     atom   57 type  1   force =     0.00000000    0.00000000    0.00000000
     atom   58 type  1   force =     0.00000000    0.00000000    0.00000000
     atom   59 type  1   force =     0.00000000    0.00000000    0.00000000
     atom   60 type  1   force =     0.00000000    0.00000000    0.00000000
     atom   61 type  1   force =     0.00000000    0.00000000    0.00000000
     atom   62 type  1   force =     0.00000000    0.00000000    0.00000000
     atom   63 type  1   force =     0.00000000    0.00000000    0.00000000
     atom   64 type  1   force =     0.00000000    0.00000000    0.00000000
     atom   65 type  1   force =     0.00000000    0.00000000    0.00000000
     atom   66 type  1   force =     0.00000000    0.00000000    0.00000000
     atom   67 type  1   force =     0.00000000    0.00000000    0.00000000
     atom   68 type  1   force =     0.00000000    0.00000000    0.00000000
     The SCF correction term to forces
     atom    1 type  1   force =     0.00000000   -0.00000001   -0.00000004
     atom    2 type  1   force =    -0.00000000   -0.00000001    0.00000003
     atom    3 type  1   force =    -0.00000000    0.00000001    0.00000003
     atom    4 type  1   force =    -0.00000001   -0.00000000    0.00000002
     atom    5 type  1   force =     0.00000000   -0.00000000    0.00000004
     atom    6 type  1   force =    -0.00000001   -0.00000000    0.00000004
     atom    7 type  1   force =    -0.00000000   -0.00000001   -0.00000000
     atom    8 type  1   force =    -0.00000000    0.00000000    0.00000004
     atom    9 type  1   force =     0.00000000   -0.00000001    0.00000005
     atom   10 type  1   force =    -0.00000000    0.00000000    0.00000002
     atom   11 type  1   force =    -0.00000000    0.00000000   -0.00000001
     atom   12 type  1   force =    -0.00000000    0.00000000   -0.00000002
     atom   13 type  1   force =    -0.00000000    0.00000000    0.00000002
     atom   14 type  1   force =    -0.00000000   -0.00000001   -0.00000001
     atom   15 type  1   force =    -0.00000000    0.00000001   -0.00000002
     atom   16 type  1   force =    -0.00000000    0.00000001   -0.00000002
     atom   17 type  1   force =    -0.00000000   -0.00000001   -0.00000002
     atom   18 type  1   force =    -0.00000000    0.00000000    0.00000003
     atom   19 type  1   force =    -0.00000000    0.00000000    0.00000004
     atom   20 type  1   force =    -0.00000000    0.00000000    0.00000004
     atom   21 type  1   force =    -0.00000000   -0.00000000    0.00000005
     atom   22 type  1   force =    -0.00000000    0.00000001    0.00000003
     atom   23 type  1   force =    -0.00000000    0.00000001    0.00000001
     atom   24 type  1   force =    -0.00000000   -0.00000001   -0.00000002
     atom   25 type  1   force =    -0.00000000   -0.00000001    0.00000002
     atom   26 type  1   force =     0.00000000   -0.00000000   -0.00000001
     atom   27 type  1   force =    -0.00000000    0.00000001   -0.00000002
     atom   28 type  1   force =    -0.00000000   -0.00000001   -0.00000002
     atom   29 type  1   force =     0.00000000    0.00000000   -0.00000003
     atom   30 type  1   force =    -0.00000000   -0.00000000   -0.00000001
     atom   31 type  1   force =    -0.00000000    0.00000000   -0.00000002
     atom   32 type  1   force =    -0.00000000    0.00000000    0.00000003
     atom   33 type  1   force =    -0.00000000   -0.00000001    0.00000003
     atom   34 type  1   force =    -0.00000001    0.00000000    0.00000002
     atom   35 type  1   force =    -0.00000000    0.00000000   -0.00000006
     atom   36 type  1   force =     0.00000000   -0.00000001    0.00000003
     atom   37 type  1   force =    -0.00000000    0.00000001    0.00000003
     atom   38 type  1   force =    -0.00000000   -0.00000000    0.00000002
     atom   39 type  1   force =     0.00000000   -0.00000000    0.00000005
     atom   40 type  1   force =     0.00000000   -0.00000000    0.00000004
     atom   41 type  1   force =     0.00000000   -0.00000001   -0.00000000
     atom   42 type  1   force =     0.00000000    0.00000000    0.00000004
     atom   43 type  1   force =     0.00000000   -0.00000001    0.00000005
     atom   44 type  1   force =     0.00000000    0.00000000    0.00000001
     atom   45 type  1   force =     0.00000000    0.00000001   -0.00000001
     atom   46 type  1   force =    -0.00000000    0.00000000   -0.00000002
     atom   47 type  1   force =     0.00000000    0.00000000    0.00000001
     atom   48 type  1   force =     0.00000001   -0.00000001   -0.00000001
     atom   49 type  1   force =    -0.00000000    0.00000001   -0.00000003
     atom   50 type  1   force =     0.00000000    0.00000001   -0.00000002
     atom   51 type  1   force =     0.00000000   -0.00000001   -0.00000002
     atom   52 type  1   force =     0.00000000    0.00000000    0.00000003
     atom   53 type  1   force =     0.00000000    0.00000000    0.00000004
     atom   54 type  1   force =    -0.00000000    0.00000001    0.00000004
     atom   55 type  1   force =     0.00000000   -0.00000000    0.00000004
     atom   56 type  1   force =     0.00000000    0.00000001    0.00000003
     atom   57 type  1   force =     0.00000000    0.00000001    0.00000001
     atom   58 type  1   force =     0.00000000   -0.00000001   -0.00000002
     atom   59 type  1   force =     0.00000000   -0.00000001    0.00000002
     atom   60 type  1   force =     0.00000000    0.00000000   -0.00000001
     atom   61 type  1   force =     0.00000000    0.00000000   -0.00000002
     atom   62 type  1   force =     0.00000000   -0.00000000   -0.00000002
     atom   63 type  1   force =    -0.00000000    0.00000000   -0.00000002
     atom   64 type  1   force =     0.00000000   -0.00000000   -0.00000001
     atom   65 type  1   force =     0.00000000    0.00000000   -0.00000002
     atom   66 type  1   force =     0.00000000   -0.00000000    0.00000004
     atom   67 type  1   force =     0.00000000   -0.00000001    0.00000003
     atom   68 type  1   force =    -0.00000000    0.00000000    0.00000002

     Total force =     0.002774     Total SCF correction =     0.000000

     Writing all to output data dir ./Li/Lithium.save/ :
     XML data file

     General routines

     Parallel routines

     PAW routines

     Environ routines

   This run was terminated on:  22: 7:41   5Jan2025

   JOB DONE.