     Program PWSCF v.7.4 starts on  5Jan2025 at 12:47:10
        Git branch: develop
        Last git commit: e877ff360aceba4b8d76ffc2fb1c70545fc5dd57
        Last git commit date: Sat Jan 4 12:56:15 2025 +0000
        Last git commit subject: Merge branch 'orthoU' into 'develop'

     Reading input from espresso.pwi
Warning: card &CELL ignored
Warning: card    PRESS_CONV_THR   = 0.1 ignored
Warning: card    CELL_DOFREE      = 'ALL' ignored
Warning: card / ignored
Warning: card &FCP ignored
Warning: card / ignored
Warning: card &RISM ignored
Warning: card / ignored

     Current dimensions of program PWSCF are:
     Max number of different atomic species (ntypx) = 10
     Max number of k-points (npk) =  40000
     Max angular momentum in pseudopotentials (lmaxx) =  4

     IMPORTANT: XC functional enforced from input :
     Exchange-correlation= PBE
                           (   1   4   3   4   0   0   0)
     Any further DFT definition will be discarded
     Please, verify this is what you really want

     Reading input from environ.in:
     * using ionic solvent mode
     * setting boundary derivatives method to SSCS default
     * setting electrolyte-boundary derivatives method to SSCS default

Environ Warning (1001): card EOF ignored

     K-points division:     npool     =       2
     R & G space division:  proc/nbgrp/npool/nimage =     220
     Subspace diagonalization in iterative solution of the eigenvalue problem:
     a serial algorithm will be used

     Using Slab Decomposition

     bravais-lattice index     =           12
     lattice parameter (alat)  =      11.2436  a.u.
     unit-cell volume          =   15431.5264 (a.u.)^3
     number of atoms/cell      =           28
     number of atomic types    =            1
     number of electrons       =        84.00
     number of Kohn-Sham states=           63
     kinetic-energy cutoff     =      80.0000  Ry
     charge density cutoff     =     800.0000  Ry
     scf convergence threshold =      1.0E-14
     mixing beta               =       0.2000
     number of iterations used =            8  local-TF  mixing
     Exchange-correlation= PBE
                           (   1   4   3   4   0   0   0)

                                  Environ Setup Summary

          O. Andreussi, I. Dabo and N. Marzari, J. Chem. Phys. 136, 064102 (2012)
          F. Nattino, M. Truscott, N. Marzari, and O. Andreussi, J. Chem. Phys. 150, 041722 (2019)

     in publications or presentations arising from this work.

     Parameters

     compensation onset threshold      =               0.1000E+00
     static permittivity               =                    89.90
     surface tension in input (dyn/cm) =                    37.30
     surface tension in internal units =               0.4792E-04

     Solvent Boundary

     solvent mode                      =                    ionic
     derivatives method                =                   lowmem
     electrolyte derivatives method    =                   lowmem
     numerical core for derivatives    =                      fft
     switching function adopted        =                     SCCS
     density limit for vacuum region   =               0.5000E-02
     density limit for bulk solvent    =               0.1000E-03
     soft-sphere radius mode           =                    bondi
     soft-sphere softness              =                     0.50
     alpha                             =                     1.32

     Electrostatic Setup

     electrostatic problem to solve    =                    modpb
     numerical solver adopted          =                   newton
     type of auxiliary density adopted =                     none
     numerical core for poisson        =                      fft
     adopting a nested solver scheme
     inner solver                      =                       cg
     inner core                        =                      fft
     type of pbc corrections           =                parabolic
     numerical core for corrections    =                      1da

     >>>>> Grand-Canonical SCF is activated <<<<<
     Initial Total Charge  =     0.000000 e
     Target Fermi Energy   =    -3.904000 eV
     Thr. of Fermi Energy  =     0.001000 eV
     Wave-shift of Kerker  =     0.400000 bohr^-1
     Wave-shift of Hartree =     1.500000 bohr^-1
     Mixing Rate of Fermi  =     0.050000

     celldm(1)=  11.243615  celldm(2)=   1.258306  celldm(3)=   8.704589
     celldm(4)=  -0.132454  celldm(5)=   0.000000  celldm(6)=   0.000000

     crystal axes: (cart. coord. in units of alat)
               a(1) = (   1.000000   0.000000   0.000000 )
               a(2) = (  -0.166667   1.247219   0.000000 )
               a(3) = (   0.000000   0.000000   8.704589 )

     reciprocal axes: (cart. coord. in units 2 pi/alat)
               b(1) = (  1.000000  0.133631  0.000000 )
               b(2) = (  0.000000  0.801784  0.000000 )
               b(3) = (  0.000000  0.000000  0.114882 )

     PseudoPot. # 1 for Li read from file:
     /home/mmm1182/Repos/Pseudopotentials/pslibrary/Li.pbe-sl-kjpaw_psl.1.0.0.UPF
     MD5 check sum: f40bb4162937df3f7c561f1969c76545
     Pseudo is Projector augmented-wave, Zval =  3.0
     Generated using 'atomic' code by A. Dal Corso  v.7.3.1
     Shape of augmentation charge: PSQ
     Using radial grid of 1017 points,  4 beta functions with:
                l(1) =   0
                l(2) =   0
                l(3) =   1
                l(4) =   1
     Q(r) pseudized with 0 coefficients

     atomic species   valence    mass     pseudopotential
     Li                3.00     6.94000     Li( 1.00)

     No symmetry found

                                    s                        frac. trans.

      isym =  1     identity

 cryst.   s( 1) = (     1          0          0      )
                  (     0          1          0      )
                  (     0          0          1      )

 cart.    s( 1) = (  1.0000000  0.0000000  0.0000000 )
                  (  0.0000000  1.0000000  0.0000000 )
                  (  0.0000000  0.0000000  1.0000000 )

     point group C_1 (1)
     there are  1 classes
     the character table:

       E
A      1.00

     the symmetry operations in each class and the name of the first element:

     E        1
          identity

   Cartesian axes

     site n.     atom                  positions (alat units)
         1        Li     tau(   1) = (   0.0489084  -0.0446389   5.3763334  )
         2        Li     tau(   2) = (  -0.0489197   0.8464209   3.3282549  )
         3        Li     tau(   3) = (   0.1255248   0.3584971   3.4856857  )
         4        Li     tau(   4) = (   0.1651352   1.1617746   3.6825680  )
         5        Li     tau(   5) = (   0.3151074   0.7086698   3.7773646  )
         6        Li     tau(   6) = (   0.0025994   0.2779033   3.9667053  )
         7        Li     tau(   7) = (  -0.0295898   1.0593925   4.1166192  )
         8        Li     tau(   8) = (   0.1820226   0.6315728   4.2725155  )
         9        Li     tau(   9) = (   0.3179805   0.1702114   4.4320739  )
        10        Li     tau(  10) = (   0.3629226   0.9896102   4.5879712  )
        11        Li     tau(  11) = (  -0.0025982   0.5238805   4.7378843  )
        12        Li     tau(  12) = (   0.1848915   0.0931136   4.9272246  )
        13        Li     tau(  13) = (   0.1681979   0.8872273   5.0220218  )
        14        Li     tau(  14) = (   0.3744805   0.4432893   5.2189051  )
        15        Li     tau(  15) = (   0.5489071  -0.0446389   5.3763336  )
        16        Li     tau(  16) = (   0.4510947   0.8464206   3.3282549  )
        17        Li     tau(  17) = (   0.6255178   0.3584965   3.4856845  )
        18        Li     tau(  18) = (   0.6651331   1.1617748   3.6825672  )
        19        Li     tau(  19) = (   0.8151114   0.7086701   3.7773664  )
        20        Li     tau(  20) = (   0.5025994   0.2779024   3.9667052  )
        21        Li     tau(  21) = (   0.4704110   1.0593931   4.1166188  )
        22        Li     tau(  22) = (   0.6820226   0.6315733   4.2725153  )
        23        Li     tau(  23) = (   0.8179804   0.1702114   4.4320739  )
        24        Li     tau(  24) = (   0.8629226   0.9896104   4.5879708  )
        25        Li     tau(  25) = (   0.4974013   0.5238806   4.7378839  )
        26        Li     tau(  26) = (   0.6848928   0.0931134   4.9272251  )
        27        Li     tau(  27) = (   0.6681972   0.8872276   5.0220215  )
        28        Li     tau(  28) = (   0.8744794   0.4432893   5.2189052  )

   Crystallographic axes

     site n.     atom                  positions (cryst. coord.)
         1        Li     tau(   1) = (  0.0429433 -0.0357908  0.6176436  )
         2        Li     tau(   2) = (  0.0641883  0.6786465  0.3823563  )
         3        Li     tau(   3) = (  0.1734311  0.2874372  0.4004423  )
         4        Li     tau(   4) = (  0.3203842  0.9314920  0.4230605  )
         5        Li     tau(   5) = (  0.4098076  0.5682000  0.4339509  )
         6        Li     tau(   6) = (  0.0397359  0.2228183  0.4557028  )
         7        Li     tau(   7) = (  0.1119778  0.8494038  0.4729252  )
         8        Li     tau(   8) = (  0.2664202  0.5063848  0.4908348  )
         9        Li     tau(   9) = (  0.3407259  0.1364727  0.5091652  )
        10        Li     tau(  10) = (  0.4951650  0.7934534  0.5270750  )
        11        Li     tau(  11) = (  0.0674085  0.4200389  0.5442973  )
        12        Li     tau(  12) = (  0.1973343  0.0746570  0.5660491  )
        13        Li     tau(  13) = (  0.2867589  0.7113645  0.5769396  )
        14        Li     tau(  14) = (  0.4337177  0.3554222  0.5995579  )
        15        Li     tau(  15) = (  0.5429420 -0.0357908  0.6176436  )
        16        Li     tau(  16) = (  0.5642026  0.6786463  0.3823564  )
        17        Li     tau(  17) = (  0.6734240  0.2874367  0.4004422  )
        18        Li     tau(  18) = (  0.8203822  0.9314922  0.4230604  )
        19        Li     tau(  19) = (  0.9098116  0.5682002  0.4339512  )
        20        Li     tau(  20) = (  0.5397357  0.2228177  0.4557028  )
        21        Li     tau(  21) = (  0.6119787  0.8494042  0.4729251  )
        22        Li     tau(  22) = (  0.7664203  0.5063853  0.4908348  )
        23        Li     tau(  23) = (  0.8407259  0.1364727  0.5091652  )
        24        Li     tau(  24) = (  0.9951651  0.7934536  0.5270749  )
        25        Li     tau(  25) = (  0.5674079  0.4200390  0.5442973  )
        26        Li     tau(  26) = (  0.6973356  0.0746568  0.5660491  )
        27        Li     tau(  27) = (  0.7867583  0.7113648  0.5769395  )
        28        Li     tau(  28) = (  0.9337166  0.3554222  0.5995579  )

     number of k points=    50  Marzari-Vanderbilt smearing, width (Ry)=  0.0100
                       cart. coord. in units 2pi/alat
        k(    1) = (   0.0000000   0.0000000   0.0000000), wk =   0.0202020
        k(    2) = (   0.0000000   0.0890871   0.0000000), wk =   0.0404040
        k(    3) = (   0.0000000   0.1781742   0.0000000), wk =   0.0404040
[...]
     atom   12 type  1   force =     0.00000982   -0.00027817    0.04728298
     atom   13 type  1   force =    -0.00011159   -0.00786933    0.06901604
     atom   14 type  1   force =    -0.00008155    0.01705275    0.06249089
     atom   15 type  1   force =     0.00011156   -0.01209812    0.02450415
     atom   16 type  1   force =    -0.00011235    0.01209854   -0.02450393
     atom   17 type  1   force =     0.00008174   -0.01705335   -0.06249087
     atom   18 type  1   force =     0.00011161    0.00786963   -0.06901663
     atom   19 type  1   force =    -0.00000976    0.00027822   -0.04728315
     atom   20 type  1   force =    -0.00002212   -0.00208107   -0.03683259
     atom   21 type  1   force =     0.00002743    0.00098806   -0.02218196
     atom   22 type  1   force =    -0.00002568   -0.00014000   -0.00674940
     atom   23 type  1   force =     0.00002566    0.00013999    0.00674890
     atom   24 type  1   force =    -0.00002744   -0.00098804    0.02218146
     atom   25 type  1   force =     0.00002214    0.00208098    0.03683207
     atom   26 type  1   force =     0.00000982   -0.00027817    0.04728301
     atom   27 type  1   force =    -0.00011156   -0.00786932    0.06901603
     atom   28 type  1   force =    -0.00008148    0.01705274    0.06249091

     Forces acting on atoms (cartesian axes, Ry/au):

     atom    1 type  1   force =     0.00011418    0.00021983    0.00000975
     atom    2 type  1   force =    -0.00010972   -0.00021970   -0.00000961
     atom    3 type  1   force =    -0.00007424    0.00014777   -0.00004100
     atom    4 type  1   force =    -0.00002052   -0.00002136   -0.00008426
     atom    5 type  1   force =     0.00020094   -0.00010861    0.00020293
     atom    6 type  1   force =    -0.00007129   -0.00010657   -0.00030813
     atom    7 type  1   force =     0.00008674    0.00018150    0.00007683
     atom    8 type  1   force =     0.00010875    0.00019995   -0.00006854
     atom    9 type  1   force =    -0.00010888   -0.00020004    0.00006857
     atom   10 type  1   force =    -0.00008640   -0.00018131   -0.00007712
     atom   11 type  1   force =     0.00007108    0.00010638    0.00030818
     atom   12 type  1   force =    -0.00019931    0.00010878   -0.00020242
     atom   13 type  1   force =     0.00001960    0.00002155    0.00008386
     atom   14 type  1   force =     0.00007171   -0.00014831    0.00004053
     atom   15 type  1   force =     0.00011502    0.00021982    0.00000975
     atom   16 type  1   force =    -0.00011910   -0.00021957   -0.00000964
     atom   17 type  1   force =    -0.00006970    0.00014806   -0.00004033
     atom   18 type  1   force =    -0.00001915   -0.00002122   -0.00008364
     atom   19 type  1   force =     0.00019829   -0.00010872    0.00020190
     atom   20 type  1   force =    -0.00007139   -0.00010603   -0.00030821
     atom   21 type  1   force =     0.00008618    0.00018119    0.00007704
     atom   22 type  1   force =     0.00010876    0.00019968   -0.00006839
     atom   23 type  1   force =    -0.00010886   -0.00019995    0.00006858
     atom   24 type  1   force =    -0.00008643   -0.00018142   -0.00007687
     atom   25 type  1   force =     0.00007145    0.00010625    0.00030828
     atom   26 type  1   force =    -0.00020012    0.00010895   -0.00020259
     atom   27 type  1   force =     0.00002001    0.00002133    0.00008390
     atom   28 type  1   force =     0.00007238   -0.00014821    0.00004065
     The non-local contrib.  to forces
     atom    1 type  1   force =     0.00061381   -0.02173517    0.10267475
     atom    2 type  1   force =    -0.00061092    0.02173567   -0.10267453
     atom    3 type  1   force =     0.00036558   -0.02668196   -0.07760552
     atom    4 type  1   force =     0.00128161    0.00697047   -0.02210629
     atom    5 type  1   force =    -0.00087407   -0.00217635    0.00472250
     atom    6 type  1   force =     0.00005939    0.00019611    0.00206270
     atom    7 type  1   force =    -0.00056015   -0.00078006    0.00111449
     atom    8 type  1   force =     0.00041394    0.00032233    0.00011710
     atom    9 type  1   force =    -0.00041329   -0.00032230   -0.00011684
     atom   10 type  1   force =     0.00056010    0.00078036   -0.00111476
     atom   11 type  1   force =    -0.00005968   -0.00019668   -0.00206270
     atom   12 type  1   force =     0.00087505    0.00217684   -0.00472245
     atom   13 type  1   force =    -0.00128237   -0.00697098    0.02210470
     atom   14 type  1   force =    -0.00036711    0.02668085    0.07760557
     atom   15 type  1   force =     0.00061441   -0.02173521    0.10267476
     atom   16 type  1   force =    -0.00061729    0.02173650   -0.10267469
     atom   17 type  1   force =     0.00036872   -0.02668238   -0.07760467
     atom   18 type  1   force =     0.00128257    0.00697211   -0.02210507
     atom   19 type  1   force =    -0.00087588   -0.00217698    0.00472216
     atom   20 type  1   force =     0.00005950    0.00019703    0.00206319
     atom   21 type  1   force =    -0.00056050   -0.00078056    0.00111453
     atom   22 type  1   force =     0.00041356    0.00032209    0.00011717
     atom   23 type  1   force =    -0.00041350   -0.00032216   -0.00011695
     atom   24 type  1   force =     0.00056028    0.00078017   -0.00111462
     atom   25 type  1   force =    -0.00005933   -0.00019696   -0.00206271
     atom   26 type  1   force =     0.00087461    0.00217692   -0.00472269
     atom   27 type  1   force =    -0.00128195   -0.00697100    0.02210464
     atom   28 type  1   force =    -0.00036682    0.02668098    0.07760576
     The ionic contribution  to forces
     atom    1 type  1   force =    -0.00244809   -0.19165120   13.13928501
     atom    2 type  1   force =     0.00250933    0.19166053  -13.13928934
     atom    3 type  1   force =    -0.00033262   -0.34015181  -11.85740700
     atom    4 type  1   force =    -0.00527812    0.20441887   -9.43183594
     atom    5 type  1   force =     0.00201799   -0.05747871   -7.75191625
     atom    6 type  1   force =    -0.00089876    0.00644234   -5.28312264
     atom    7 type  1   force =     0.00473727    0.02068433   -3.21586201
     atom    8 type  1   force =    -0.00160661   -0.04933305   -1.08310054
     atom    9 type  1   force =     0.00160924    0.04933152    1.08310058
     atom   10 type  1   force =    -0.00473427   -0.02067608    3.21586729
     atom   11 type  1   force =     0.00089269   -0.00645136    5.28311696
     atom   12 type  1   force =    -0.00200106    0.05749503    7.75191252
     atom   13 type  1   force =     0.00526601   -0.20442544    9.43182225
     atom   14 type  1   force =     0.00029790    0.34013427   11.85741456
     atom   15 type  1   force =    -0.00243823   -0.19165110   13.13928633
     atom   16 type  1   force =     0.00237852    0.19166433  -13.13928931
     atom   17 type  1   force =    -0.00027193   -0.34015709  -11.85740719
     atom   18 type  1   force =    -0.00526050    0.20443941   -9.43183021
     atom   19 type  1   force =     0.00199615   -0.05749315   -7.75189044
     atom   20 type  1   force =    -0.00089196    0.00645418   -5.28311638
     atom   21 type  1   force =     0.00473144    0.02067613   -3.21586535
     atom   22 type  1   force =    -0.00161326   -0.04933722   -1.08310403
     atom   23 type  1   force =     0.00160642    0.04933420    1.08310062
     atom   24 type  1   force =    -0.00473249   -0.02067928    3.21586581
     atom   25 type  1   force =     0.00089886   -0.00645515    5.28311223
     atom   26 type  1   force =    -0.00201242    0.05749680    7.75191682
     atom   27 type  1   force =     0.00527290   -0.20442750    9.43181949
     atom   28 type  1   force =     0.00030562    0.34013620   11.85741617
     The local contribution  to forces
     atom    1 type  1   force =     0.00183705    0.22570436  -13.26645415
     atom    2 type  1   force =    -0.00189755   -0.22571433   13.26645807
     atom    3 type  1   force =    -0.00018845    0.38403470   11.99746258
     atom    4 type  1   force =     0.00386448   -0.21928005    9.52287468
     atom    5 type  1   force =    -0.00093309    0.05926814    7.79467999
     atom    6 type  1   force =     0.00079023   -0.00466394    5.31758442
     atom    7 type  1   force =    -0.00411782   -0.02071086    3.23700628
     atom    8 type  1   force =     0.00132708    0.04935064    1.08966427
     atom    9 type  1   force =    -0.00133050   -0.04934926   -1.08966405
     atom   10 type  1   force =     0.00411523    0.02070243   -3.23701111
     atom   11 type  1   force =    -0.00078405    0.00467341   -5.31757818
     atom   12 type  1   force =     0.00091689   -0.05928493   -7.79467540
     atom   13 type  1   force =    -0.00385242    0.21928728   -9.52285902
     atom   14 type  1   force =     0.00022248   -0.38401619  -11.99747033
     atom   15 type  1   force =     0.00182728    0.22570428  -13.26645537
     atom   16 type  1   force =    -0.00176799   -0.22571895   13.26645818
     atom   17 type  1   force =    -0.00024821    0.38404089   11.99746224
     atom   18 type  1   force =     0.00384718   -0.21930235    9.52286810
     atom   19 type  1   force =    -0.00091222    0.05928319    7.79465325
     atom   20 type  1   force =     0.00078320   -0.00467619    5.31757755
     atom   21 type  1   force =    -0.00411218   -0.02070245    3.23700982
     atom   22 type  1   force =     0.00133415    0.04935479    1.08966785
     atom   23 type  1   force =    -0.00132742   -0.04935200   -1.08966398
     atom   24 type  1   force =     0.00411323    0.02070572   -3.23700949
     atom   25 type  1   force =    -0.00079021    0.00467738   -5.31757329
     atom   26 type  1   force =     0.00092789   -0.05928661   -7.79467966
     atom   27 type  1   force =    -0.00385935    0.21928914   -9.52285615
     atom   28 type  1   force =     0.00021506   -0.38401815  -11.99747204
     The core correction contribution to forces
     atom    1 type  1   force =     0.00000000    0.00000000    0.00000000
     atom    2 type  1   force =     0.00000000    0.00000000    0.00000000
     atom    3 type  1   force =     0.00000000    0.00000000    0.00000000
     atom    4 type  1   force =     0.00000000    0.00000000    0.00000000
     atom    5 type  1   force =     0.00000000    0.00000000    0.00000000
     atom    6 type  1   force =     0.00000000    0.00000000    0.00000000
     atom    7 type  1   force =     0.00000000    0.00000000    0.00000000
     atom    8 type  1   force =     0.00000000    0.00000000    0.00000000
     atom    9 type  1   force =     0.00000000    0.00000000    0.00000000
     atom   10 type  1   force =     0.00000000    0.00000000    0.00000000
     atom   11 type  1   force =     0.00000000    0.00000000    0.00000000
     atom   12 type  1   force =     0.00000000    0.00000000    0.00000000
     atom   13 type  1   force =     0.00000000    0.00000000    0.00000000
     atom   14 type  1   force =     0.00000000    0.00000000    0.00000000
     atom   15 type  1   force =     0.00000000    0.00000000    0.00000000
     atom   16 type  1   force =     0.00000000    0.00000000    0.00000000
     atom   17 type  1   force =     0.00000000    0.00000000    0.00000000
     atom   18 type  1   force =     0.00000000    0.00000000    0.00000000
     atom   19 type  1   force =     0.00000000    0.00000000    0.00000000
     atom   20 type  1   force =     0.00000000    0.00000000    0.00000000
     atom   21 type  1   force =     0.00000000    0.00000000    0.00000000
     atom   22 type  1   force =     0.00000000    0.00000000    0.00000000
     atom   23 type  1   force =     0.00000000    0.00000000    0.00000000
     atom   24 type  1   force =     0.00000000    0.00000000    0.00000000
     atom   25 type  1   force =     0.00000000    0.00000000    0.00000000
     atom   26 type  1   force =     0.00000000    0.00000000    0.00000000
     atom   27 type  1   force =     0.00000000    0.00000000    0.00000000
     atom   28 type  1   force =     0.00000000    0.00000000    0.00000000
     The Hubbard contrib.    to forces
     atom    1 type  1   force =     0.00000000    0.00000000    0.00000000
     atom    2 type  1   force =     0.00000000    0.00000000    0.00000000
     atom    3 type  1   force =     0.00000000    0.00000000    0.00000000
     atom    4 type  1   force =     0.00000000    0.00000000    0.00000000
     atom    5 type  1   force =     0.00000000    0.00000000    0.00000000
     atom    6 type  1   force =     0.00000000    0.00000000    0.00000000
     atom    7 type  1   force =     0.00000000    0.00000000    0.00000000
     atom    8 type  1   force =     0.00000000    0.00000000    0.00000000
     atom    9 type  1   force =     0.00000000    0.00000000    0.00000000
     atom   10 type  1   force =     0.00000000    0.00000000    0.00000000
     atom   11 type  1   force =     0.00000000    0.00000000    0.00000000
     atom   12 type  1   force =     0.00000000    0.00000000    0.00000000
     atom   13 type  1   force =     0.00000000    0.00000000    0.00000000
     atom   14 type  1   force =     0.00000000    0.00000000    0.00000000
     atom   15 type  1   force =     0.00000000    0.00000000    0.00000000
     atom   16 type  1   force =     0.00000000    0.00000000    0.00000000
     atom   17 type  1   force =     0.00000000    0.00000000    0.00000000
     atom   18 type  1   force =     0.00000000    0.00000000    0.00000000
     atom   19 type  1   force =     0.00000000    0.00000000    0.00000000
     atom   20 type  1   force =     0.00000000    0.00000000    0.00000000
     atom   21 type  1   force =     0.00000000    0.00000000    0.00000000
     atom   22 type  1   force =     0.00000000    0.00000000    0.00000000
     atom   23 type  1   force =     0.00000000    0.00000000    0.00000000
     atom   24 type  1   force =     0.00000000    0.00000000    0.00000000
     atom   25 type  1   force =     0.00000000    0.00000000    0.00000000
     atom   26 type  1   force =     0.00000000    0.00000000    0.00000000
     atom   27 type  1   force =     0.00000000    0.00000000    0.00000000
     atom   28 type  1   force =     0.00000000    0.00000000    0.00000000
     The SCF correction term to forces
     atom    1 type  1   force =     0.00000002   -0.00000004   -0.00000011
     atom    2 type  1   force =     0.00000001   -0.00000003    0.00000010
     atom    3 type  1   force =    -0.00000002   -0.00000004    0.00000017
     atom    4 type  1   force =    -0.00000000   -0.00000003    0.00000015
     atom    5 type  1   force =     0.00000002   -0.00000001    0.00000009
     atom    6 type  1   force =     0.00000000    0.00000000    0.00000004
     atom    7 type  1   force =    -0.00000000   -0.00000000    0.00000001
     atom    8 type  1   force =     0.00000000    0.00000001    0.00000002
     atom    9 type  1   force =    -0.00000000    0.00000001   -0.00000001
     atom   10 type  1   force =     0.00000000    0.00000000   -0.00000003
     atom   11 type  1   force =    -0.00000000   -0.00000000   -0.00000002
     atom   12 type  1   force =    -0.00000000   -0.00000000   -0.00000006
     atom   13 type  1   force =    -0.00000001    0.00000000   -0.00000010
     atom   14 type  1   force =     0.00000000    0.00000001   -0.00000014
     atom   15 type  1   force =     0.00000001   -0.00000004   -0.00000011
     atom   16 type  1   force =     0.00000002    0.00000001    0.00000011
     atom   17 type  1   force =    -0.00000001   -0.00000002    0.00000017
     atom   18 type  1   force =    -0.00000001   -0.00000003    0.00000018
     atom   19 type  1   force =     0.00000001   -0.00000001    0.00000009
     atom   20 type  1   force =     0.00000000    0.00000000    0.00000004
     atom   21 type  1   force =    -0.00000000   -0.00000000    0.00000001
     atom   22 type  1   force =     0.00000001    0.00000001    0.00000001
     atom   23 type  1   force =    -0.00000000    0.00000001   -0.00000001
     atom   24 type  1   force =     0.00000000    0.00000000   -0.00000003
     atom   25 type  1   force =    -0.00000000   -0.00000000   -0.00000002
     atom   26 type  1   force =    -0.00000000   -0.00000000   -0.00000006
     atom   27 type  1   force =    -0.00000001    0.00000000   -0.00000010
     atom   28 type  1   force =     0.00000001    0.00000001   -0.00000013

     Total force =     0.001273     Total SCF correction =     0.000001

     Writing all to output data dir ./Li/Lithium.save/ :
     XML data file

     General routines

     Parallel routines

     PAW routines

     Environ routines

   This run was terminated on:  13: 3:24   5Jan2025

   JOB DONE.