     Program PWSCF v.7.4 starts on 24Jan2025 at  1:57:13

     Reading input from espresso.pwi
Warning: card &CELL ignored
Warning: card    PRESS_CONV_THR   = 0.1 ignored
Warning: card    CELL_DOFREE      = 'ALL' ignored
Warning: card / ignored
Warning: card &FCP ignored
Warning: card / ignored
Warning: card &RISM ignored
Warning: card / ignored

     Current dimensions of program PWSCF are:
     Max number of different atomic species (ntypx) = 10
     Max number of k-points (npk) =  40000
     Max angular momentum in pseudopotentials (lmaxx) =  4

     IMPORTANT: XC functional enforced from input :
     Exchange-correlation= PBE
                           (   1   4   3   4   0   0   0)
     Any further DFT definition will be discarded
     Please, verify this is what you really want

     Reading input from environ.in:
     * using ionic solvent mode
     * setting boundary derivatives method to SSCS default
     * setting electrolyte-boundary derivatives method to SSCS default

Environ Warning (1001): card EOF ignored

     K-points division:     npool     =       2
     R & G space division:  proc/nbgrp/npool/nimage =     192
     Subspace diagonalization in iterative solution of the eigenvalue problem:
     a serial algorithm will be used

     Using Slab Decomposition

     bravais-lattice index     =            4
     lattice parameter (alat)  =      18.3607  a.u.
     unit-cell volume          =   28251.3786 (a.u.)^3
     number of atoms/cell      =           48
     number of atomic types    =            1
     number of electrons       =       144.00
     number of Kohn-Sham states=          108
     kinetic-energy cutoff     =      80.0000  Ry
     charge density cutoff     =     800.0000  Ry
     scf convergence threshold =      1.0E-06
     mixing beta               =       0.2000
     number of iterations used =            8  local-TF  mixing
     energy convergence thresh.=      1.0E-05
     force convergence thresh. =      3.9E-04
     Exchange-correlation= PBE
                           (   1   4   3   4   0   0   0)
     nstep                     =          999

                                  Environ Setup Summary

          O. Andreussi, I. Dabo and N. Marzari, J. Chem. Phys. 136, 064102 (2012)
          F. Nattino, M. Truscott, N. Marzari, and O. Andreussi, J. Chem. Phys. 150, 041722 (2019)

     in publications or presentations arising from this work.

     Parameters

     compensation onset threshold      =               0.1000E+00
     static permittivity               =                    89.90
     surface tension in input (dyn/cm) =                    37.30
     surface tension in internal units =               0.4792E-04

     Solvent Boundary

     solvent mode                      =                    ionic
     derivatives method                =                   lowmem
     electrolyte derivatives method    =                   lowmem
     numerical core for derivatives    =                      fft
     switching function adopted        =                     SCCS
     density limit for vacuum region   =               0.5000E-02
     density limit for bulk solvent    =               0.1000E-03
     soft-sphere radius mode           =                    bondi
     soft-sphere softness              =                     0.50
     alpha                             =                     1.32

     Electrostatic Setup

     electrostatic problem to solve    =                    modpb
     numerical solver adopted          =                   newton
     type of auxiliary density adopted =                     none
     numerical core for poisson        =                      fft
     adopting a nested solver scheme
     inner solver                      =                       cg
     inner core                        =                      fft
     type of pbc corrections           =                parabolic
     numerical core for corrections    =                      1da

     >>>>> Grand-Canonical SCF is activated <<<<<
     Initial Total Charge  =     0.000000 e
     Target Fermi Energy   =    -1.654000 eV
     Thr. of Fermi Energy  =     0.001000 eV
     Wave-shift of Kerker  =     0.400000 bohr^-1
     Wave-shift of Hartree =     1.500000 bohr^-1
     Mixing Rate of Fermi  =     0.050000

     celldm(1)=  18.360747  celldm(2)=   0.000000  celldm(3)=   5.270332
     celldm(4)=   0.000000  celldm(5)=   0.000000  celldm(6)=   0.000000

     crystal axes: (cart. coord. in units of alat)
               a(1) = (   1.000000   0.000000   0.000000 )
               a(2) = (  -0.500000   0.866025   0.000000 )
               a(3) = (   0.000000   0.000000   5.270332 )

     reciprocal axes: (cart. coord. in units 2 pi/alat)
               b(1) = (  1.000000  0.577350 -0.000000 )
               b(2) = (  0.000000  1.154701  0.000000 )
               b(3) = (  0.000000 -0.000000  0.189741 )

     PseudoPot. # 1 for Li read from file:
     /work/e89/e89/ba3g18/Repos/Pseudopotentials/Pslibrary/Li.pbe-sl-kjpaw_psl.1.0.0.UPF
     MD5 check sum: 3f4d2cafebb47c6c3aa8ed472e6f074d
     Pseudo is Projector augmented-wave, Zval =  3.0
     Generated using 'atomic' code by A. Dal Corso  v.7.4
     Shape of augmentation charge: PSQ
     Using radial grid of 1017 points,  4 beta functions with:
                l(1) =   0
                l(2) =   0
                l(3) =   1
                l(4) =   1
     Q(r) pseudized with 0 coefficients

     atomic species   valence    mass     pseudopotential
     Li                3.00     6.94000     Li( 1.00)

      4 Sym. Ops., with inversion, found ( 2 have fractional translation)

                                    s                        frac. trans.

      isym =  1     identity

 cryst.   s( 1) = (     1          0          0      )
                  (     0          1          0      )
                  (     0          0          1      )

 cart.    s( 1) = (  1.0000000  0.0000000  0.0000000 )
                  (  0.0000000  1.0000000  0.0000000 )
                  (  0.0000000  0.0000000  1.0000000 )

      isym =  2     180 deg rotation - cart. axis [1,0,0]

 cryst.   s( 2) = (     1          0          0      )    f =(  0.3333335 )
                  (    -1         -1          0      )       ( -0.3333329 )
                  (     0          0         -1      )       ( -0.0000013 )

 cart.    s( 2) = (  1.0000000  0.0000000  0.0000000 )    f =(  0.5000000 )
                  (  0.0000000 -1.0000000  0.0000000 )       ( -0.2886748 )
                  (  0.0000000  0.0000000 -1.0000000 )       ( -0.0000068 )

      isym =  3     inversion

 cryst.   s( 3) = (    -1          0          0      )    f =(  0.3333335 )
                  (     0         -1          0      )       ( -0.3333329 )
                  (     0          0         -1      )       ( -0.0000013 )

 cart.    s( 3) = ( -1.0000000  0.0000000  0.0000000 )    f =(  0.5000000 )
                  (  0.0000000 -1.0000000  0.0000000 )       ( -0.2886748 )
                  (  0.0000000  0.0000000 -1.0000000 )       ( -0.0000068 )

      isym =  4     inv. 180 deg rotation - cart. axis [1,0,0]

 cryst.   s( 4) = (    -1          0          0      )
                  (     1          1          0      )
                  (     0          0          1      )

 cart.    s( 4) = ( -1.0000000  0.0000000  0.0000000 )
                  (  0.0000000  1.0000000  0.0000000 )
                  (  0.0000000  0.0000000  1.0000000 )

     point group C_2h (2/m)
     there are  4 classes
     the character table:

       E     C2    i     s_h
A_g    1.00  1.00  1.00  1.00
B_g    1.00 -1.00  1.00 -1.00
A_u    1.00  1.00 -1.00 -1.00
B_u    1.00 -1.00 -1.00  1.00

     the symmetry operations in each class and the name of the first element:

     E        1
          identity
     C2       2
          180 deg rotation - cart. axis [1,0,0]
     i        3
          inversion
     s_h      4
          inv. 180 deg rotation - cart. axis [1,0,0]

   Cartesian axes

     site n.     atom                  positions (alat units)
         1        Li     tau(   1) = (  -0.0000000  -0.0000472   2.5748267  )
         2        Li     tau(   2) = (   0.2500616   0.1443620   2.1877848  )
         3        Li     tau(   3) = (   0.5000000   0.2886943   2.3885717  )
         4        Li     tau(   4) = (   0.0000000   0.0000148   2.2647426  )
         5        Li     tau(   5) = (   0.2500121   0.1443475   2.4841245  )
         6        Li     tau(   6) = (   0.5000000   0.2887584   2.0868206  )
         7        Li     tau(   7) = (   0.0000000  -0.0000856   3.1835088  )
         8        Li     tau(   8) = (   0.2499891   0.1443264   2.7862095  )
         9        Li     tau(   9) = (   0.5000000   0.2886600   3.0056011  )
        10        Li     tau(  10) = (  -0.0000000  -0.0000166   2.8817640  )
        11        Li     tau(  11) = (   0.2499406   0.1443132   3.0825442  )
        12        Li     tau(  12) = (   0.5000000   0.2887220   2.6955121  )
        13        Li     tau(  13) = (   0.2500593   0.4330078   2.5749381  )
        14        Li     tau(  14) = (   0.5000000   0.5773311   2.1879329  )
        15        Li     tau(  15) = (   0.7499516   0.7217070   2.3884434  )
        16        Li     tau(  16) = (   0.2499997   0.4330306   2.2648095  )
        17        Li     tau(  17) = (   0.5000000   0.5773190   2.4841776  )
        18        Li     tau(  18) = (   0.7498533   0.7217288   2.0866484  )
        19        Li     tau(  19) = (   0.2501442   0.4329763   3.1836798  )
        20        Li     tau(  20) = (   0.5000000   0.5773809   2.7861535  )
        21        Li     tau(  21) = (   0.7500013   0.7216715   3.0055168  )
        22        Li     tau(  22) = (   0.2500477   0.4329900   2.8818920  )
        23        Li     tau(  23) = (   0.5000000   0.5773712   3.0823919  )
        24        Li     tau(  24) = (   0.7499397   0.7216930   2.6953937  )
        25        Li     tau(  25) = (   0.5000000   0.0000606   2.5749881  )
        26        Li     tau(  26) = (   0.7499384   0.1443619   2.1877848  )
        27        Li     tau(  27) = (   1.0000000   0.2886671   2.3883800  )
        28        Li     tau(  28) = (   0.5000000  -0.0000005   2.2648324  )
        29        Li     tau(  29) = (   0.7499879   0.1443475   2.4841245  )
        30        Li     tau(  30) = (   1.0000000   0.2885827   2.0865528  )
        31        Li     tau(  31) = (   0.5000000   0.0000841   3.1837729  )
        32        Li     tau(  32) = (   0.7500108   0.1443264   2.7862095  )
        33        Li     tau(  33) = (   1.0000000   0.2886716   3.0055114  )
        34        Li     tau(  34) = (   0.5000000   0.0000139   2.8819552  )
        35        Li     tau(  35) = (   0.7500593   0.1443132   3.0825442  )
        36        Li     tau(  36) = (   1.0000000   0.2886127   2.6953527  )
        37        Li     tau(  37) = (   0.7499406   0.4330078   2.5749381  )
        38        Li     tau(  38) = (   1.0000000   0.5773881   2.1875349  )
        39        Li     tau(  39) = (   1.2500484   0.7217070   2.3884434  )
        40        Li     tau(  40) = (   0.7500002   0.4330306   2.2648095  )
[...]
     atom   28 type  1   force =     0.00000284    0.00182033    8.54311366
     atom   29 type  1   force =     0.00078371    0.00014508    3.48701568
     atom   30 type  1   force =     0.00000833    0.00163404   12.30849819
     atom   31 type  1   force =     0.00000228    0.00287011  -12.30089853
     atom   32 type  1   force =    -0.00008482    0.00035248   -3.48421433
     atom   33 type  1   force =     0.00000306    0.00026233   -8.54610306
     atom   34 type  1   force =     0.00000227    0.00005763   -5.72073913
     atom   35 type  1   force =    -0.00015028    0.00007032  -10.41986552
     atom   36 type  1   force =     0.00000365   -0.00150038   -1.31135739
     atom   37 type  1   force =    -0.00324095   -0.00039022    1.31349715
     atom   38 type  1   force =     0.00000249   -0.00039647   10.43248043
     atom   39 type  1   force =     0.00250523    0.00117696    5.72231301
     atom   40 type  1   force =    -0.00110020   -0.00058812    8.54875771
     atom   41 type  1   force =     0.00000307   -0.00145725    3.49080740
     atom   42 type  1   force =     0.00023506   -0.00130641   12.30755407
     atom   43 type  1   force =    -0.00163980   -0.00146741  -12.30139462
     atom   44 type  1   force =     0.00000307   -0.00117368   -3.48309224
     atom   45 type  1   force =     0.00168011   -0.00049987   -8.54138390
     atom   46 type  1   force =    -0.00287009    0.00063280   -5.72035395
     atom   47 type  1   force =     0.00000307    0.00014343  -10.41890651
     atom   48 type  1   force =     0.00268876    0.00006462   -1.30941372
     The core correction contribution to forces
     atom    1 type  1   force =     0.00000000    0.00000000    0.00000000
     atom    2 type  1   force =     0.00000000    0.00000000    0.00000000
     atom    3 type  1   force =     0.00000000    0.00000000    0.00000000
     atom    4 type  1   force =     0.00000000    0.00000000    0.00000000
     atom    5 type  1   force =     0.00000000    0.00000000    0.00000000
     atom    6 type  1   force =     0.00000000    0.00000000    0.00000000
     atom    7 type  1   force =     0.00000000    0.00000000    0.00000000
     atom    8 type  1   force =     0.00000000    0.00000000    0.00000000
     atom    9 type  1   force =     0.00000000    0.00000000    0.00000000
     atom   10 type  1   force =     0.00000000    0.00000000    0.00000000
     atom   11 type  1   force =     0.00000000    0.00000000    0.00000000
     atom   12 type  1   force =     0.00000000    0.00000000    0.00000000
     atom   13 type  1   force =     0.00000000    0.00000000    0.00000000
     atom   14 type  1   force =     0.00000000    0.00000000    0.00000000
     atom   15 type  1   force =     0.00000000    0.00000000    0.00000000
     atom   16 type  1   force =     0.00000000    0.00000000    0.00000000
     atom   17 type  1   force =     0.00000000    0.00000000    0.00000000
     atom   18 type  1   force =     0.00000000    0.00000000    0.00000000
     atom   19 type  1   force =     0.00000000    0.00000000    0.00000000
     atom   20 type  1   force =     0.00000000    0.00000000    0.00000000
     atom   21 type  1   force =     0.00000000    0.00000000    0.00000000
     atom   22 type  1   force =     0.00000000    0.00000000    0.00000000
     atom   23 type  1   force =     0.00000000    0.00000000    0.00000000
     atom   24 type  1   force =     0.00000000    0.00000000    0.00000000
     atom   25 type  1   force =     0.00000000    0.00000000    0.00000000
     atom   26 type  1   force =     0.00000000    0.00000000    0.00000000
     atom   27 type  1   force =     0.00000000    0.00000000    0.00000000
     atom   28 type  1   force =     0.00000000    0.00000000    0.00000000
     atom   29 type  1   force =     0.00000000    0.00000000    0.00000000
     atom   30 type  1   force =     0.00000000    0.00000000    0.00000000
     atom   31 type  1   force =     0.00000000    0.00000000    0.00000000
     atom   32 type  1   force =     0.00000000    0.00000000    0.00000000
     atom   33 type  1   force =     0.00000000    0.00000000    0.00000000
     atom   34 type  1   force =     0.00000000    0.00000000    0.00000000
     atom   35 type  1   force =     0.00000000    0.00000000    0.00000000
     atom   36 type  1   force =     0.00000000    0.00000000    0.00000000
     atom   37 type  1   force =     0.00000000    0.00000000    0.00000000
     atom   38 type  1   force =     0.00000000    0.00000000    0.00000000
     atom   39 type  1   force =     0.00000000    0.00000000    0.00000000
     atom   40 type  1   force =     0.00000000    0.00000000    0.00000000
     atom   41 type  1   force =     0.00000000    0.00000000    0.00000000
     atom   42 type  1   force =     0.00000000    0.00000000    0.00000000
     atom   43 type  1   force =     0.00000000    0.00000000    0.00000000
     atom   44 type  1   force =     0.00000000    0.00000000    0.00000000
     atom   45 type  1   force =     0.00000000    0.00000000    0.00000000
     atom   46 type  1   force =     0.00000000    0.00000000    0.00000000
     atom   47 type  1   force =     0.00000000    0.00000000    0.00000000
     atom   48 type  1   force =     0.00000000    0.00000000    0.00000000
     The Hubbard contrib.    to forces
     atom    1 type  1   force =     0.00000000    0.00000000    0.00000000
     atom    2 type  1   force =     0.00000000    0.00000000    0.00000000
     atom    3 type  1   force =     0.00000000    0.00000000    0.00000000
     atom    4 type  1   force =     0.00000000    0.00000000    0.00000000
     atom    5 type  1   force =     0.00000000    0.00000000    0.00000000
     atom    6 type  1   force =     0.00000000    0.00000000    0.00000000
     atom    7 type  1   force =     0.00000000    0.00000000    0.00000000
     atom    8 type  1   force =     0.00000000    0.00000000    0.00000000
     atom    9 type  1   force =     0.00000000    0.00000000    0.00000000
     atom   10 type  1   force =     0.00000000    0.00000000    0.00000000
     atom   11 type  1   force =     0.00000000    0.00000000    0.00000000
     atom   12 type  1   force =     0.00000000    0.00000000    0.00000000
     atom   13 type  1   force =     0.00000000    0.00000000    0.00000000
     atom   14 type  1   force =     0.00000000    0.00000000    0.00000000
     atom   15 type  1   force =     0.00000000    0.00000000    0.00000000
     atom   16 type  1   force =     0.00000000    0.00000000    0.00000000
     atom   17 type  1   force =     0.00000000    0.00000000    0.00000000
     atom   18 type  1   force =     0.00000000    0.00000000    0.00000000
     atom   19 type  1   force =     0.00000000    0.00000000    0.00000000
     atom   20 type  1   force =     0.00000000    0.00000000    0.00000000
     atom   21 type  1   force =     0.00000000    0.00000000    0.00000000
     atom   22 type  1   force =     0.00000000    0.00000000    0.00000000
     atom   23 type  1   force =     0.00000000    0.00000000    0.00000000
     atom   24 type  1   force =     0.00000000    0.00000000    0.00000000
     atom   25 type  1   force =     0.00000000    0.00000000    0.00000000
     atom   26 type  1   force =     0.00000000    0.00000000    0.00000000
     atom   27 type  1   force =     0.00000000    0.00000000    0.00000000
     atom   28 type  1   force =     0.00000000    0.00000000    0.00000000
     atom   29 type  1   force =     0.00000000    0.00000000    0.00000000
     atom   30 type  1   force =     0.00000000    0.00000000    0.00000000
     atom   31 type  1   force =     0.00000000    0.00000000    0.00000000
     atom   32 type  1   force =     0.00000000    0.00000000    0.00000000
     atom   33 type  1   force =     0.00000000    0.00000000    0.00000000
     atom   34 type  1   force =     0.00000000    0.00000000    0.00000000
     atom   35 type  1   force =     0.00000000    0.00000000    0.00000000
     atom   36 type  1   force =     0.00000000    0.00000000    0.00000000
     atom   37 type  1   force =     0.00000000    0.00000000    0.00000000
     atom   38 type  1   force =     0.00000000    0.00000000    0.00000000
     atom   39 type  1   force =     0.00000000    0.00000000    0.00000000
     atom   40 type  1   force =     0.00000000    0.00000000    0.00000000
     atom   41 type  1   force =     0.00000000    0.00000000    0.00000000
     atom   42 type  1   force =     0.00000000    0.00000000    0.00000000
     atom   43 type  1   force =     0.00000000    0.00000000    0.00000000
     atom   44 type  1   force =     0.00000000    0.00000000    0.00000000
     atom   45 type  1   force =     0.00000000    0.00000000    0.00000000
     atom   46 type  1   force =     0.00000000    0.00000000    0.00000000
     atom   47 type  1   force =     0.00000000    0.00000000    0.00000000
     atom   48 type  1   force =     0.00000000    0.00000000    0.00000000
     The SCF correction term to forces
     atom    1 type  1   force =     0.00000000    0.00000003   -0.00000022
     atom    2 type  1   force =    -0.00000005   -0.00000000   -0.00000066
     atom    3 type  1   force =     0.00000000   -0.00000002   -0.00000136
     atom    4 type  1   force =    -0.00000000    0.00000002    0.00000024
     atom    5 type  1   force =    -0.00000002    0.00000001   -0.00000087
     atom    6 type  1   force =    -0.00000000   -0.00000001   -0.00000098
     atom    7 type  1   force =    -0.00000000   -0.00000000    0.00000103
     atom    8 type  1   force =     0.00000001    0.00000002    0.00000083
     atom    9 type  1   force =     0.00000000   -0.00000002   -0.00000027
     atom   10 type  1   force =     0.00000000    0.00000003    0.00000131
     atom   11 type  1   force =     0.00000003    0.00000003    0.00000066
     atom   12 type  1   force =    -0.00000000   -0.00000002    0.00000019
     atom   13 type  1   force =    -0.00000005    0.00000000   -0.00000021
     atom   14 type  1   force =     0.00000000    0.00000002   -0.00000067
     atom   15 type  1   force =     0.00000002   -0.00000003   -0.00000132
     atom   16 type  1   force =    -0.00000005    0.00000000    0.00000023
     atom   17 type  1   force =     0.00000000    0.00000003   -0.00000090
     atom   18 type  1   force =    -0.00000000   -0.00000002   -0.00000096
     atom   19 type  1   force =     0.00000001   -0.00000000    0.00000098
     atom   20 type  1   force =    -0.00000000   -0.00000005    0.00000086
     atom   21 type  1   force =     0.00000006   -0.00000001   -0.00000025
     atom   22 type  1   force =    -0.00000002   -0.00000000    0.00000129
     atom   23 type  1   force =    -0.00000000   -0.00000006    0.00000068
     atom   24 type  1   force =     0.00000005   -0.00000001    0.00000018
     atom   25 type  1   force =     0.00000000   -0.00000004   -0.00000015
     atom   26 type  1   force =     0.00000005   -0.00000000   -0.00000066
     atom   27 type  1   force =     0.00000000    0.00000003   -0.00000130
     atom   28 type  1   force =    -0.00000000   -0.00000000    0.00000027
     atom   29 type  1   force =     0.00000002    0.00000001   -0.00000086
     atom   30 type  1   force =     0.00000000    0.00000006   -0.00000101
     atom   31 type  1   force =    -0.00000000   -0.00000002    0.00000102
     atom   32 type  1   force =    -0.00000001    0.00000002    0.00000083
     atom   33 type  1   force =     0.00000000    0.00000002   -0.00000029
     atom   34 type  1   force =     0.00000000    0.00000000    0.00000127
     atom   35 type  1   force =    -0.00000004    0.00000003    0.00000066
     atom   36 type  1   force =    -0.00000000    0.00000005    0.00000015
     atom   37 type  1   force =     0.00000005    0.00000000   -0.00000021
     atom   38 type  1   force =     0.00000000   -0.00000006   -0.00000060
     atom   39 type  1   force =    -0.00000002   -0.00000003   -0.00000133
     atom   40 type  1   force =     0.00000005    0.00000000    0.00000023
     atom   41 type  1   force =     0.00000000   -0.00000002   -0.00000084
     atom   42 type  1   force =    -0.00000000   -0.00000002   -0.00000096
     atom   43 type  1   force =    -0.00000001    0.00000000    0.00000099
     atom   44 type  1   force =     0.00000000   -0.00000001    0.00000079
     atom   45 type  1   force =    -0.00000006   -0.00000001   -0.00000025
     atom   46 type  1   force =     0.00000002    0.00000000    0.00000129
     atom   47 type  1   force =     0.00000000    0.00000004    0.00000060
     atom   48 type  1   force =    -0.00000005   -0.00000001    0.00000018

     Total force =     0.001804     Total SCF correction =     0.000006
     Energy error            =      2.9E-06 Ry
     Gradient error          =      3.1E-04 Ry/Bohr

     bfgs converged in  18 scf cycles and  17 bfgs steps
     (criteria: energy <  1.0E-05 Ry, force <  3.9E-04 Ry/Bohr)

     End of BFGS Geometry Optimization

     Final energy             =    -722.0404533867 Ry

     File ./Li/Lithium.bfgs deleted, as requested
Begin final coordinates

ATOMIC_POSITIONS (angstrom)
Li              -0.0000000100       -0.0005302248       25.0520049055
Li               2.4291361271        1.4025321100       21.2425153687
Li               4.8580444100        2.8053555730       23.1883788213
Li               0.0000000100        0.0000973243       22.0510700772
Li               2.4289290674        1.4024197718       24.1305469425
Li               4.8580445000        2.8055452795       20.2513777961
Li               0.0000000000       -0.0007745108       30.9556112778
Li               2.4291272780        1.4023615675       27.0764866209
Li               4.8580444100        2.8046925769       29.1560578804
Li              -0.0000000100       -0.0005378585       28.0186714976
Li               2.4289305098        1.4022608498       29.9644691663
Li               4.8580444200        2.8053201297       26.1550751478
Li               2.4298979662        4.2071605138       25.0526375546
Li               4.8580443900        5.6098185806       21.2437352718
Li               7.2860179032        7.0121853879       23.1876756390
Li               2.4290895461        4.2073598027       22.0512096687
Li               4.8580444100        5.6096005741       24.1311415268
Li               7.2859398224        7.0122598615       20.2508162923
Li               2.4301247973        4.2069572629       30.9561607353
Li               4.8580444000        5.6095664668       27.0758640042
Li               7.2870091514        7.0118286504       29.1557487479
Li               2.4300645220        4.2069531608       28.0193719972
Li               4.8580444000        5.6093714911       29.9632091850
Li               7.2861812324        7.0120147751       26.1543749818
Li               4.8580444000        0.0006747359       25.0530245711
Li               7.2869526929        1.4025320900       21.2425155187
Li               9.7160888200        2.8042994683       23.1873189749
Li               4.8580443900       -0.0000033274       22.0513509104
Li               7.2871597526        1.4024197718       24.1305470225
Li               9.7160887400        2.8040774699       20.2504207280
Li               4.8580444000        0.0006352364       30.9565322097
Li               7.2869615420        1.4023615675       27.0764866709
Li               9.7160888300        2.8047573018       29.1557784511
Li               4.8580444000        0.0005499829       28.0197267448
Li               7.2871583102        1.4022608398       29.9644692063
Li               9.7160888200        2.8041006204       26.1540749466
Li               7.2861908439        4.2071605238       25.0526375546
Li               9.7160888400        5.6097219571       21.2405349086
Li              12.1461597468        7.0121853979       23.1876756490
Li               7.2869992639        4.2073598227       22.0512096787
Li               9.7160888300        5.6097441750       24.1295709475
Li              12.1462378276        7.0122599715       20.2508163023
Li               7.2859640127        4.2069572729       30.9561607253
Li               9.7160888300        5.6094708066       27.0773814275
Li              12.1451684987        7.0118286504       29.1557487479
Li               7.2860242980        4.2069531608       28.0193719872
Li               9.7160888300        5.6094521009       29.9663206061
Li              12.1459964276        7.0120147851       26.1543749818
End final coordinates

     Writing all to output data dir ./Li/Lithium.save/ :
     XML data file

     General routines

     Parallel routines

     PAW routines

     Environ routines

   This run was terminated on:   7:11:31  24Jan2025

   JOB DONE.