     Program PWSCF v.7.4 starts on  1Jan2025 at 19:36:43

     Reading input from espresso.pwi
Warning: card &CELL ignored
Warning: card    PRESS_CONV_THR   = 0.1 ignored
Warning: card    CELL_DOFREE      = 'ALL' ignored
Warning: card / ignored
Warning: card &FCP ignored
Warning: card / ignored
Warning: card &RISM ignored
Warning: card / ignored

     Current dimensions of program PWSCF are:
     Max number of different atomic species (ntypx) = 10
     Max number of k-points (npk) =  40000
     Max angular momentum in pseudopotentials (lmaxx) =  4

     IMPORTANT: XC functional enforced from input :
     Exchange-correlation= PBE
                           (   1   4   3   4   0   0   0)
     Any further DFT definition will be discarded
     Please, verify this is what you really want

     Reading input from environ.in:
     * using ionic solvent mode
     * setting boundary derivatives method to SSCS default
     * setting electrolyte-boundary derivatives method to SSCS default

Environ Warning (1001): card EOF ignored

     Found identity + (  0.5000 -0.0000 -0.0000) symmetry
     This is a supercell, fractional translations are disabled

     K-points division:     npool     =       2
     R & G space division:  proc/nbgrp/npool/nimage =     192
     Subspace diagonalization in iterative solution of the eigenvalue problem:
     a serial algorithm will be used

     Using Slab Decomposition

     bravais-lattice index     =            8
     lattice parameter (alat)  =      12.9830  a.u.
     unit-cell volume          =   16814.9384 (a.u.)^3
     number of atoms/cell      =           20
     number of atomic types    =            1
     number of electrons       =        60.00
     number of Kohn-Sham states=           45
     kinetic-energy cutoff     =      80.0000  Ry
     charge density cutoff     =     800.0000  Ry
     scf convergence threshold =      1.0E-06
     mixing beta               =       0.2000
     number of iterations used =            8  local-TF  mixing
     energy convergence thresh.=      1.0E-05
     force convergence thresh. =      3.9E-04
     Exchange-correlation= PBE
                           (   1   4   3   4   0   0   0)
     nstep                     =          999

                                  Environ Setup Summary

          O. Andreussi, I. Dabo and N. Marzari, J. Chem. Phys. 136, 064102 (2012)
          F. Nattino, M. Truscott, N. Marzari, and O. Andreussi, J. Chem. Phys. 150, 041722 (2019)

     in publications or presentations arising from this work.

     Parameters

     compensation onset threshold      =               0.1000E+00
     static permittivity               =                    89.90
     surface tension in input (dyn/cm) =                    37.30
     surface tension in internal units =               0.4792E-04

     Solvent Boundary

     solvent mode                      =                    ionic
     derivatives method                =                   lowmem
     electrolyte derivatives method    =                   lowmem
     numerical core for derivatives    =                      fft
     switching function adopted        =                     SCCS
     density limit for vacuum region   =               0.5000E-02
     density limit for bulk solvent    =               0.1000E-03
     soft-sphere radius mode           =                    bondi
     soft-sphere softness              =                     0.50
     alpha                             =                     1.32

     Electrostatic Setup

     electrostatic problem to solve    =                    modpb
     numerical solver adopted          =                   newton
     type of auxiliary density adopted =                     none
     numerical core for poisson        =                      fft
     adopting a nested solver scheme
     inner solver                      =                       cg
     inner core                        =                      fft
     type of pbc corrections           =                parabolic
     numerical core for corrections    =                      1da

     >>>>> Grand-Canonical SCF is activated <<<<<
     Initial Total Charge  =     0.000000 e
     Target Fermi Energy   =    -3.404000 eV
     Thr. of Fermi Energy  =     0.001000 eV
     Wave-shift of Kerker  =     0.400000 bohr^-1
     Wave-shift of Hartree =     1.500000 bohr^-1
     Mixing Rate of Fermi  =     0.050000

     celldm(1)=  12.983009  celldm(2)=   1.118034  celldm(3)=   6.872491
     celldm(4)=   0.000000  celldm(5)=   0.000000  celldm(6)=   0.000000

     crystal axes: (cart. coord. in units of alat)
               a(1) = (   1.000000   0.000000   0.000000 )
               a(2) = (   0.000000   1.118034   0.000000 )
               a(3) = (   0.000000   0.000000   6.872491 )

     reciprocal axes: (cart. coord. in units 2 pi/alat)
               b(1) = (  1.000000  0.000000  0.000000 )
               b(2) = (  0.000000  0.894427  0.000000 )
               b(3) = (  0.000000  0.000000  0.145508 )

     PseudoPot. # 1 for Li read from file:
     /work/e89/e89/ba3g18/Repos/Pseudopotentials/Pslibrary/Li.pbe-sl-kjpaw_psl.1.0.0.UPF
     MD5 check sum: 3f4d2cafebb47c6c3aa8ed472e6f074d
     Pseudo is Projector augmented-wave, Zval =  3.0
     Generated using 'atomic' code by A. Dal Corso  v.7.4
     Shape of augmentation charge: PSQ
     Using radial grid of 1017 points,  4 beta functions with:
                l(1) =   0
                l(2) =   0
                l(3) =   1
                l(4) =   1
     Q(r) pseudized with 0 coefficients

     atomic species   valence    mass     pseudopotential
     Li                3.00     6.94000     Li( 1.00)

      2 Sym. Ops. (no inversion) found

                                    s                        frac. trans.

      isym =  1     identity

 cryst.   s( 1) = (     1          0          0      )
                  (     0          1          0      )
                  (     0          0          1      )

 cart.    s( 1) = (  1.0000000  0.0000000  0.0000000 )
                  (  0.0000000  1.0000000  0.0000000 )
                  (  0.0000000  0.0000000  1.0000000 )

      isym =  2     inv. 180 deg rotation - cart. axis [1,0,0]

 cryst.   s( 2) = (    -1          0          0      )
                  (     0          1          0      )
                  (     0          0          1      )

 cart.    s( 2) = ( -1.0000000  0.0000000  0.0000000 )
                  (  0.0000000  1.0000000  0.0000000 )
                  (  0.0000000  0.0000000  1.0000000 )

     point group C_s (m)
     there are  2 classes
     the character table:

       E     s
A'     1.00  1.00
A''    1.00 -1.00

     the symmetry operations in each class and the name of the first element:

     E        1
          identity
     s        2
          inv. 180 deg rotation - cart. axis [1,0,0]

   Cartesian axes

     site n.     atom                  positions (alat units)
         1        Li     tau(   1) = (  -0.0000000   0.4547292   3.7086617  )
         2        Li     tau(   2) = (  -0.0000000   0.8914138   3.4987125  )
         3        Li     tau(   3) = (  -0.0000000   0.2262358   3.2707670  )
         4        Li     tau(   4) = (  -0.0000000   0.6419492   3.0386306  )
         5        Li     tau(   5) = (  -0.0000000   0.0704740   3.9477550  )
         6        Li     tau(   6) = (   0.2500000   0.5620329   3.3737787  )
         7        Li     tau(   7) = (   0.2499999   0.9987150   3.1638288  )
         8        Li     tau(   8) = (   0.2499999   0.2649328   2.9247322  )
         9        Li     tau(   9) = (   0.2500000   0.8114931   3.8338586  )
        10        Li     tau(  10) = (   0.2500002   0.1091766   3.6017224  )
        11        Li     tau(  11) = (   0.5000000   0.4547291   3.7086616  )
        12        Li     tau(  12) = (   0.5000000   0.8914136   3.4987123  )
        13        Li     tau(  13) = (   0.5000000   0.2262357   3.2707668  )
        14        Li     tau(  14) = (   0.5000000   0.6419493   3.0386301  )
        15        Li     tau(  15) = (   0.5000000   0.0704745   3.9477556  )
        16        Li     tau(  16) = (   0.7500000   0.5620329   3.3737787  )
        17        Li     tau(  17) = (   0.7500001   0.9987150   3.1638288  )
        18        Li     tau(  18) = (   0.7500000   0.2649328   2.9247322  )
        19        Li     tau(  19) = (   0.7499999   0.8114931   3.8338586  )
        20        Li     tau(  20) = (   0.7499998   0.1091766   3.6017224  )

   Crystallographic axes

     site n.     atom                  positions (cryst. coord.)
         1        Li     tau(   1) = ( -0.0000000  0.4067222  0.5396386  )
         2        Li     tau(   2) = ( -0.0000000  0.7973048  0.5090894  )
         3        Li     tau(   3) = ( -0.0000000  0.2023515  0.4759216  )
         4        Li     tau(   4) = ( -0.0000000  0.5741768  0.4421440  )
         5        Li     tau(   5) = ( -0.0000000  0.0630339  0.5744285  )
         6        Li     tau(   6) = (  0.2500000  0.5026975  0.4909106  )
         7        Li     tau(   7) = (  0.2499999  0.8932778  0.4603613  )
         8        Li     tau(   8) = (  0.2499999  0.2369631  0.4255709  )
         9        Li     tau(   9) = (  0.2500000  0.7258215  0.5578557  )
        10        Li     tau(  10) = (  0.2500002  0.0976505  0.5240781  )
        11        Li     tau(  11) = (  0.5000000  0.4067221  0.5396386  )
        12        Li     tau(  12) = (  0.5000000  0.7973046  0.5090894  )
        13        Li     tau(  13) = (  0.5000000  0.2023514  0.4759216  )
        14        Li     tau(  14) = (  0.5000000  0.5741769  0.4421439  )
        15        Li     tau(  15) = (  0.5000000  0.0630343  0.5744286  )
        16        Li     tau(  16) = (  0.7500000  0.5026975  0.4909106  )
        17        Li     tau(  17) = (  0.7500001  0.8932778  0.4603613  )
        18        Li     tau(  18) = (  0.7500000  0.2369631  0.4255709  )
        19        Li     tau(  19) = (  0.7499999  0.7258215  0.5578557  )
        20        Li     tau(  20) = (  0.7499998  0.0976505  0.5240781  )

     number of k points=    30  Marzari-Vanderbilt smearing, width (Ry)=  0.0100
                       cart. coord. in units 2pi/alat
        k(    1) = (   0.0000000   0.0000000   0.0000000), wk =   0.0222222
        k(    2) = (   0.0000000   0.0993808   0.0000000), wk =   0.0444444
        k(    3) = (   0.0000000   0.1987616   0.0000000), wk =   0.0444444
        k(    4) = (   0.0000000   0.2981424   0.0000000), wk =   0.0444444
        k(    5) = (   0.0000000   0.3975232   0.0000000), wk =   0.0444444
        k(    6) = (   0.1000000   0.0000000   0.0000000), wk =   0.0444444
        k(    7) = (   0.1000000   0.0993808   0.0000000), wk =   0.0888889
        k(    8) = (   0.1000000   0.1987616   0.0000000), wk =   0.0888889
        k(    9) = (   0.1000000   0.2981424   0.0000000), wk =   0.0888889
        k(   10) = (   0.1000000   0.3975232   0.0000000), wk =   0.0888889
        k(   11) = (   0.2000000   0.0000000   0.0000000), wk =   0.0444444
        k(   12) = (   0.2000000   0.0993808   0.0000000), wk =   0.0888889
[...]
    -4.6852  -4.6852  -4.4142  -4.4142  -3.3437  -3.3437  -2.7479  -2.7479
    -2.2748  -2.2748  -1.7696  -1.7696  -1.6132  -1.6132  -1.4513  -1.4513
    -0.7876  -0.7876  -0.5331  -0.5331  -0.0594

     occupation numbers
     1.0000   1.0000   1.0000   1.0000   1.0000   1.0000   1.0000   1.0000
     1.0000   1.0000   1.0000   1.0000   1.0000   1.0000   1.0000   1.0000
     1.0000   1.0000   1.0000   1.0000   1.0000   1.0000   1.0000   1.0000
     1.0000   1.0000   1.0000   1.0000   0.1581   0.1580   0.0000   0.0000
     0.0000   0.0000   0.0000   0.0000   0.0000   0.0000   0.0000   0.0000
     0.0000   0.0000   0.0000   0.0000   0.0000

     the Fermi energy is    -3.4040 ev

!    total energy              =    -300.68876662 Ry
     total all-electron energy =      -300.688929 Ry
     estimated scf accuracy    <          8.6E-13 Ry

!    total charge of GC-SCF    =       1.68907092 e
     smearing contrib. (-TS)   =       0.00025519 Ry
     internal energy E=F+TS    =    -300.68902181 Ry

     The total energy is F=E-TS. E is the sum of the following terms:
     one-electron contribution =   -2571.34771470 Ry
     hartree contribution      =    1251.00381510 Ry
     xc contribution           =     -70.85511693 Ry
     ewald contribution        =    1133.93365840 Ry
     one-center paw contrib.   =       1.76744818 Ry
      -> PAW hartree energy AE =       7.38951643 Ry
      -> PAW hartree energy PS =      -7.16669669 Ry
      -> PAW xc energy AE      =      -3.47784331 Ry
      -> PAW xc energy PS      =       3.34329480 Ry
      -> total E_H with PAW    =    1251.22663484 Ry
      -> total E_XC with PAW   =     -70.98966545 Ry
     pot.stat. contrib. (-muN) =      -0.42258761 Ry
     electrostatic embedding   =      -0.62921081 Ry
     cavitation energy         =       0.02293695 Ry
     electrolyte free energy   =      -0.00952046 Ry
     correction to one-el term =     -44.15272991 Ry

     WARNING: you are using the parabolic pbc correction;
              the potential shift above must be added to
              band and Fermi energies.

     convergence has been achieved in  17 iterations
     The dielectric solvent contribution to forces
     atom    1 type  1   force =     0.00000000    0.00439958    0.02477504
     atom    2 type  1   force =     0.00000000   -0.00189350    0.00447462
     atom    3 type  1   force =     0.00000000   -0.00089742   -0.01149827
     atom    4 type  1   force =     0.00000000    0.00687779   -0.02214957
     atom    5 type  1   force =     0.00000000   -0.00123575   -0.00348952
     atom    6 type  1   force =     0.00000010    0.00189324   -0.00447195
     atom    7 type  1   force =     0.00000030   -0.00439953   -0.02477169
     atom    8 type  1   force =     0.00000046    0.00123641    0.00348912
     atom    9 type  1   force =     0.00000004   -0.00687877    0.02215253
     atom   10 type  1   force =     0.00000012    0.00089795    0.01150136
     atom   11 type  1   force =    -0.00000000    0.00439941    0.02477499
     atom   12 type  1   force =    -0.00000000   -0.00189351    0.00447467
     atom   13 type  1   force =    -0.00000000   -0.00089747   -0.01149829
     atom   14 type  1   force =    -0.00000000    0.00687789   -0.02215002
     atom   15 type  1   force =    -0.00000000   -0.00123543   -0.00348734
     atom   16 type  1   force =    -0.00000010    0.00189324   -0.00447195
     atom   17 type  1   force =    -0.00000030   -0.00439953   -0.02477169
     atom   18 type  1   force =    -0.00000046    0.00123641    0.00348912
     atom   19 type  1   force =    -0.00000004   -0.00687877    0.02215253
     atom   20 type  1   force =    -0.00000012    0.00089795    0.01150136

     Forces acting on atoms (cartesian axes, Ry/au):

     atom    1 type  1   force =     0.00000000   -0.00006745    0.00009636
     atom    2 type  1   force =     0.00000000    0.00013990    0.00008362
     atom    3 type  1   force =     0.00000000    0.00014936    0.00004422
     atom    4 type  1   force =     0.00000000    0.00005268    0.00007026
     atom    5 type  1   force =     0.00000000    0.00024878   -0.00018243
     atom    6 type  1   force =     0.00000035   -0.00014006   -0.00008252
     atom    7 type  1   force =     0.00000009    0.00006738   -0.00009660
     atom    8 type  1   force =    -0.00000003   -0.00024801    0.00018124
     atom    9 type  1   force =     0.00000005   -0.00005317   -0.00007040
     atom   10 type  1   force =     0.00000010   -0.00014887   -0.00004369
     atom   11 type  1   force =     0.00000000   -0.00006766    0.00009647
     atom   12 type  1   force =     0.00000000    0.00013944    0.00008307
     atom   13 type  1   force =     0.00000000    0.00014926    0.00004414
     atom   14 type  1   force =     0.00000000    0.00005267    0.00007026
     atom   15 type  1   force =     0.00000000    0.00024850   -0.00018202
     atom   16 type  1   force =    -0.00000035   -0.00014006   -0.00008252
     atom   17 type  1   force =    -0.00000009    0.00006738   -0.00009660
     atom   18 type  1   force =     0.00000003   -0.00024801    0.00018124
     atom   19 type  1   force =    -0.00000005   -0.00005317   -0.00007040
     atom   20 type  1   force =    -0.00000010   -0.00014887   -0.00004369
     The non-local contrib.  to forces
     atom    1 type  1   force =     0.00000000    0.00146420    0.04312836
     atom    2 type  1   force =     0.00000000    0.00414872   -0.00054854
     atom    3 type  1   force =     0.00000000    0.00437908    0.00133271
     atom    4 type  1   force =     0.00000000    0.02113748   -0.07765429
     atom    5 type  1   force =     0.00000000    0.01457640    0.09626724
     atom    6 type  1   force =     0.00000075   -0.00414970    0.00054948
     atom    7 type  1   force =     0.00000060   -0.00146444   -0.04312676
     atom    8 type  1   force =     0.00000121   -0.01457643   -0.09626594
     atom    9 type  1   force =    -0.00000010   -0.02113958    0.07765165
     atom   10 type  1   force =     0.00000042   -0.00437740   -0.00133184
     atom   11 type  1   force =     0.00000000    0.00146422    0.04312752
     atom   12 type  1   force =     0.00000000    0.00414912   -0.00054898
     atom   13 type  1   force =     0.00000000    0.00437860    0.00133306
     atom   14 type  1   force =     0.00000000    0.02113787   -0.07765296
     atom   15 type  1   force =     0.00000000    0.01457771    0.09626552
     atom   16 type  1   force =    -0.00000075   -0.00414970    0.00054948
     atom   17 type  1   force =    -0.00000060   -0.00146444   -0.04312676
     atom   18 type  1   force =    -0.00000121   -0.01457643   -0.09626594
     atom   19 type  1   force =     0.00000010   -0.02113958    0.07765165
     atom   20 type  1   force =    -0.00000042   -0.00437740   -0.00133184
     The ionic contribution  to forces
     atom    1 type  1   force =    -0.00000002    0.08384614    4.85255216
     atom    2 type  1   force =    -0.00000002   -0.00604778    1.10600616
     atom    3 type  1   force =    -0.00000003   -0.10329123   -2.92843525
     atom    4 type  1   force =    -0.00000002    0.34842637   -6.89280673
     atom    5 type  1   force =    -0.00000001    0.19865792    8.15269781
     atom    6 type  1   force =     0.00001532    0.00602837   -1.10604710
     atom    7 type  1   force =     0.00001369   -0.08384693   -4.85252886
     atom    8 type  1   force =     0.00000793   -0.19864050   -8.15263928
     atom    9 type  1   force =     0.00000545   -0.34845136    6.89273237
     atom   10 type  1   force =     0.00000995    0.10332616    2.92848380
     atom   11 type  1   force =     0.00000001    0.08383743    4.85249348
     atom   12 type  1   force =     0.00000001   -0.00605454    1.10601685
     atom   13 type  1   force =     0.00000002   -0.10329169   -2.92839801
     atom   14 type  1   force =     0.00000001    0.34842457   -6.89276679
     atom   15 type  1   force =     0.00000000    0.19866133    8.15263848
     atom   16 type  1   force =    -0.00001532    0.00602836   -1.10604712
     atom   17 type  1   force =    -0.00001369   -0.08384692   -4.85252883
     atom   18 type  1   force =    -0.00000793   -0.19864050   -8.15263924
     atom   19 type  1   force =    -0.00000545   -0.34845137    6.89273234
     atom   20 type  1   force =    -0.00000994    0.10332616    2.92848375
     The local contribution  to forces
     atom    1 type  1   force =     0.00000349   -0.08977651   -4.92036138
     atom    2 type  1   force =     0.00000348    0.00393224   -1.10984945
     atom    3 type  1   force =     0.00000291    0.09995905    2.93864491
     atom    4 type  1   force =     0.00000407   -0.37638870    6.99268505
     atom    5 type  1   force =     0.00000408   -0.21173643   -8.24566013
     atom    6 type  1   force =    -0.00001115   -0.00391207    1.10988735
     atom    7 type  1   force =    -0.00001008    0.08977747    4.92033321
     atom    8 type  1   force =    -0.00000492    0.21171870    8.24560001
     atom    9 type  1   force =    -0.00000122    0.37641642   -6.99261135
     atom   10 type  1   force =    -0.00000598   -0.09999589   -2.93869764
     atom   11 type  1   force =     0.00000442   -0.08976786   -4.92030171
     atom   12 type  1   force =     0.00000440    0.00393817   -1.10986031
     atom   13 type  1   force =     0.00000557    0.09995993    2.93860725
     atom   14 type  1   force =     0.00000500   -0.37638742    6.99264426
     atom   15 type  1   force =     0.00000384   -0.21174175   -8.24560081
     atom   16 type  1   force =     0.00002053   -0.00391149    1.10988796
     atom   17 type  1   force =     0.00001891    0.08977746    4.92033261
     atom   18 type  1   force =     0.00001435    0.21171929    8.24559883
     atom   19 type  1   force =     0.00000947    0.37641642   -6.99261074
     atom   20 type  1   force =     0.00001480   -0.09999589   -2.93869643
     The core correction contribution to forces
     atom    1 type  1   force =     0.00000000    0.00000000    0.00000000
     atom    2 type  1   force =     0.00000000    0.00000000    0.00000000
     atom    3 type  1   force =     0.00000000    0.00000000    0.00000000
     atom    4 type  1   force =     0.00000000    0.00000000    0.00000000
     atom    5 type  1   force =     0.00000000    0.00000000    0.00000000
     atom    6 type  1   force =     0.00000000    0.00000000    0.00000000
     atom    7 type  1   force =     0.00000000    0.00000000    0.00000000
     atom    8 type  1   force =     0.00000000    0.00000000    0.00000000
     atom    9 type  1   force =     0.00000000    0.00000000    0.00000000
     atom   10 type  1   force =     0.00000000    0.00000000    0.00000000
     atom   11 type  1   force =     0.00000000    0.00000000    0.00000000
     atom   12 type  1   force =     0.00000000    0.00000000    0.00000000
     atom   13 type  1   force =     0.00000000    0.00000000    0.00000000
     atom   14 type  1   force =     0.00000000    0.00000000    0.00000000
     atom   15 type  1   force =     0.00000000    0.00000000    0.00000000
     atom   16 type  1   force =     0.00000000    0.00000000    0.00000000
     atom   17 type  1   force =     0.00000000    0.00000000    0.00000000
     atom   18 type  1   force =     0.00000000    0.00000000    0.00000000
     atom   19 type  1   force =     0.00000000    0.00000000    0.00000000
     atom   20 type  1   force =     0.00000000    0.00000000    0.00000000
     The Hubbard contrib.    to forces
     atom    1 type  1   force =     0.00000000    0.00000000    0.00000000
     atom    2 type  1   force =     0.00000000    0.00000000    0.00000000
     atom    3 type  1   force =     0.00000000    0.00000000    0.00000000
     atom    4 type  1   force =     0.00000000    0.00000000    0.00000000
     atom    5 type  1   force =     0.00000000    0.00000000    0.00000000
     atom    6 type  1   force =     0.00000000    0.00000000    0.00000000
     atom    7 type  1   force =     0.00000000    0.00000000    0.00000000
     atom    8 type  1   force =     0.00000000    0.00000000    0.00000000
     atom    9 type  1   force =     0.00000000    0.00000000    0.00000000
     atom   10 type  1   force =     0.00000000    0.00000000    0.00000000
     atom   11 type  1   force =     0.00000000    0.00000000    0.00000000
     atom   12 type  1   force =     0.00000000    0.00000000    0.00000000
     atom   13 type  1   force =     0.00000000    0.00000000    0.00000000
     atom   14 type  1   force =     0.00000000    0.00000000    0.00000000
     atom   15 type  1   force =     0.00000000    0.00000000    0.00000000
     atom   16 type  1   force =     0.00000000    0.00000000    0.00000000
     atom   17 type  1   force =     0.00000000    0.00000000    0.00000000
     atom   18 type  1   force =     0.00000000    0.00000000    0.00000000
     atom   19 type  1   force =     0.00000000    0.00000000    0.00000000
     atom   20 type  1   force =     0.00000000    0.00000000    0.00000000
     The SCF correction term to forces
     atom    1 type  1   force =     0.00000000   -0.00000089    0.00000220
     atom    2 type  1   force =    -0.00000000    0.00000019    0.00000085
     atom    3 type  1   force =     0.00000000   -0.00000015    0.00000015
     atom    4 type  1   force =    -0.00000000   -0.00000029   -0.00000418
     atom    5 type  1   force =    -0.00000000   -0.00001339    0.00000218
     atom    6 type  1   force =     0.00000002   -0.00000023   -0.00000058
     atom    7 type  1   force =    -0.00000000    0.00000077   -0.00000220
     atom    8 type  1   force =     0.00000001    0.00001347   -0.00000208
     atom    9 type  1   force =     0.00000001    0.00000009    0.00000412
     atom   10 type  1   force =     0.00000000    0.00000027    0.00000006
     atom   11 type  1   force =    -0.00000000   -0.00000089    0.00000220
     atom   12 type  1   force =     0.00000000    0.00000018    0.00000085
     atom   13 type  1   force =     0.00000000   -0.00000014    0.00000014
     atom   14 type  1   force =    -0.00000000   -0.00000029   -0.00000420
     atom   15 type  1   force =    -0.00000000   -0.00001339    0.00000215
     atom   16 type  1   force =    -0.00000002   -0.00000023   -0.00000058
     atom   17 type  1   force =     0.00000000    0.00000077   -0.00000220
     atom   18 type  1   force =    -0.00000001    0.00001347   -0.00000208
     atom   19 type  1   force =    -0.00000001    0.00000009    0.00000412
     atom   20 type  1   force =    -0.00000000    0.00000027    0.00000006

     Total force =     0.000817     Total SCF correction =     0.000029
     Energy error            =      9.9E-06 Ry
     Gradient error          =      2.5E-04 Ry/Bohr

     bfgs converged in  45 scf cycles and  44 bfgs steps
     (criteria: energy <  1.0E-05 Ry, force <  3.9E-04 Ry/Bohr)

     End of BFGS Geometry Optimization

     Final energy             =    -300.6887666176 Ry

     File ./Li/Lithium.bfgs deleted, as requested
Begin final coordinates

ATOMIC_POSITIONS (angstrom)
Li              -0.0000000600        3.1875367546       25.4371113460
Li              -0.0000000600        6.1004571646       24.0616848112
Li              -0.0000000500        1.5541582741       22.4160838602
Li              -0.0000000700        4.2490023065       20.7759431232
Li              -0.0000000700        0.7295976670       27.3494824704
Li               1.7175663007        3.8851752540       23.1544356009
Li               1.7175712404        6.7980733956       21.7790442394
Li               1.7175774578        1.5747330710       19.8667387637
Li               1.7175749025        5.7366202955       26.4401682170
Li               1.7175603733        0.7502155401       24.8000754097
Li               3.4351561700        3.1875496209       25.4370876365
Li               3.4351561700        6.1004772521       24.0616943646
Li               3.4351561500        1.5541568611       22.4160994426
Li               3.4351561600        4.2490021884       20.7759615858
Li               3.4351561800        0.7296065111       27.3494287612
Li               5.1527460293        3.8851752440       23.1544355909
Li               5.1527410996        6.7980733956       21.7790442494
Li               5.1527348722        1.5747330610       19.8667387836
Li               5.1527374475        5.7366202955       26.4401682070
Li               5.1527519667        0.7502155401       24.8000753897
End final coordinates

     Writing all to output data dir ./Li/Lithium.save/ :
     XML data file

     General routines

     Parallel routines

     PAW routines

     Environ routines

   This run was terminated on:   0: 2: 1   2Jan2025

   JOB DONE.