     Program PWSCF v.7.4 starts on  2Jan2025 at 21: 6:32

     Reading input from espresso.pwi
Warning: card &CELL ignored
Warning: card    PRESS_CONV_THR   = 0.1 ignored
Warning: card    CELL_DOFREE      = 'ALL' ignored
Warning: card / ignored
Warning: card &FCP ignored
Warning: card / ignored
Warning: card &RISM ignored
Warning: card / ignored

     Current dimensions of program PWSCF are:
     Max number of different atomic species (ntypx) = 10
     Max number of k-points (npk) =  40000
     Max angular momentum in pseudopotentials (lmaxx) =  4

     IMPORTANT: XC functional enforced from input :
     Exchange-correlation= PBE
                           (   1   4   3   4   0   0   0)
     Any further DFT definition will be discarded
     Please, verify this is what you really want

     Reading input from environ.in:
     * using ionic solvent mode
     * setting boundary derivatives method to SSCS default
     * setting electrolyte-boundary derivatives method to SSCS default

Environ Warning (1001): card EOF ignored

     Found identity + (  0.5000 -0.0000  0.0000) symmetry
     This is a supercell, fractional translations are disabled

     K-points division:     npool     =       2
     R & G space division:  proc/nbgrp/npool/nimage =     192
     Subspace diagonalization in iterative solution of the eigenvalue problem:
     a serial algorithm will be used

     Using Slab Decomposition

     bravais-lattice index     =            4
     lattice parameter (alat)  =      18.3607  a.u.
     unit-cell volume          =   28251.3786 (a.u.)^3
     number of atoms/cell      =           48
     number of atomic types    =            1
     number of electrons       =       144.00
     number of Kohn-Sham states=          108
     kinetic-energy cutoff     =      80.0000  Ry
     charge density cutoff     =     800.0000  Ry
     scf convergence threshold =      1.0E-06
     mixing beta               =       0.2000
     number of iterations used =            8  local-TF  mixing
     energy convergence thresh.=      1.0E-05
     force convergence thresh. =      3.9E-04
     Exchange-correlation= PBE
                           (   1   4   3   4   0   0   0)
     nstep                     =          999

                                  Environ Setup Summary

          O. Andreussi, I. Dabo and N. Marzari, J. Chem. Phys. 136, 064102 (2012)
          F. Nattino, M. Truscott, N. Marzari, and O. Andreussi, J. Chem. Phys. 150, 041722 (2019)

     in publications or presentations arising from this work.

     Parameters

     compensation onset threshold      =               0.1000E+00
     static permittivity               =                    89.90
     surface tension in input (dyn/cm) =                    37.30
     surface tension in internal units =               0.4792E-04

     Solvent Boundary

     solvent mode                      =                    ionic
     derivatives method                =                   lowmem
     electrolyte derivatives method    =                   lowmem
     numerical core for derivatives    =                      fft
     switching function adopted        =                     SCCS
     density limit for vacuum region   =               0.5000E-02
     density limit for bulk solvent    =               0.1000E-03
     soft-sphere radius mode           =                    bondi
     soft-sphere softness              =                     0.50
     alpha                             =                     1.32

     Electrostatic Setup

     electrostatic problem to solve    =                    modpb
     numerical solver adopted          =                   newton
     type of auxiliary density adopted =                     none
     numerical core for poisson        =                      fft
     adopting a nested solver scheme
     inner solver                      =                       cg
     inner core                        =                      fft
     type of pbc corrections           =                parabolic
     numerical core for corrections    =                      1da

     >>>>> Grand-Canonical SCF is activated <<<<<
     Initial Total Charge  =     0.000000 e
     Target Fermi Energy   =    -2.404000 eV
     Thr. of Fermi Energy  =     0.001000 eV
     Wave-shift of Kerker  =     0.400000 bohr^-1
     Wave-shift of Hartree =     1.500000 bohr^-1
     Mixing Rate of Fermi  =     0.050000

     celldm(1)=  18.360747  celldm(2)=   0.000000  celldm(3)=   5.270332
     celldm(4)=   0.000000  celldm(5)=   0.000000  celldm(6)=   0.000000

     crystal axes: (cart. coord. in units of alat)
               a(1) = (   1.000000   0.000000   0.000000 )
               a(2) = (  -0.500000   0.866025   0.000000 )
               a(3) = (   0.000000   0.000000   5.270332 )

     reciprocal axes: (cart. coord. in units 2 pi/alat)
               b(1) = (  1.000000  0.577350 -0.000000 )
               b(2) = (  0.000000  1.154701  0.000000 )
               b(3) = (  0.000000 -0.000000  0.189741 )

     PseudoPot. # 1 for Li read from file:
     /work/e89/e89/ba3g18/Repos/Pseudopotentials/Pslibrary/Li.pbe-sl-kjpaw_psl.1.0.0.UPF
     MD5 check sum: 3f4d2cafebb47c6c3aa8ed472e6f074d
     Pseudo is Projector augmented-wave, Zval =  3.0
     Generated using 'atomic' code by A. Dal Corso  v.7.4
     Shape of augmentation charge: PSQ
     Using radial grid of 1017 points,  4 beta functions with:
                l(1) =   0
                l(2) =   0
                l(3) =   1
                l(4) =   1
     Q(r) pseudized with 0 coefficients

     atomic species   valence    mass     pseudopotential
     Li                3.00     6.94000     Li( 1.00)

      2 Sym. Ops. (no inversion) found

                                    s                        frac. trans.

      isym =  1     identity

 cryst.   s( 1) = (     1          0          0      )
                  (     0          1          0      )
                  (     0          0          1      )

 cart.    s( 1) = (  1.0000000  0.0000000  0.0000000 )
                  (  0.0000000  1.0000000  0.0000000 )
                  (  0.0000000  0.0000000  1.0000000 )

      isym =  2     inv. 180 deg rotation - cart. axis [1,0,0]

 cryst.   s( 2) = (    -1          0          0      )
                  (     1          1          0      )
                  (     0          0          1      )

 cart.    s( 2) = ( -1.0000000  0.0000000  0.0000000 )
                  (  0.0000000  1.0000000  0.0000000 )
                  (  0.0000000  0.0000000  1.0000000 )

     point group C_s (m)
     there are  2 classes
     the character table:

       E     s
A'     1.00  1.00
A''    1.00 -1.00

     the symmetry operations in each class and the name of the first element:

     E        1
          identity
     s        2
          inv. 180 deg rotation - cart. axis [1,0,0]

   Cartesian axes

     site n.     atom                  positions (alat units)
         1        Li     tau(   1) = (  -0.0000000   0.0000027   2.5819631  )
         2        Li     tau(   2) = (   0.2500003   0.1443432   2.1935100  )
         3        Li     tau(   3) = (   0.5000000   0.2886765   2.3727803  )
         4        Li     tau(   4) = (   0.0000000   0.0000056   2.2700504  )
         5        Li     tau(   5) = (   0.2500006   0.1443405   2.4863717  )
         6        Li     tau(   6) = (   0.5000000   0.2886803   2.0639476  )
         7        Li     tau(   7) = (   0.0000000  -0.0000080   3.2064051  )
         8        Li     tau(   8) = (   0.2500015   0.1443369   2.7839684  )
         9        Li     tau(   9) = (   0.5000000   0.2886700   3.0002591  )
        10        Li     tau(  10) = (  -0.0000000  -0.0000016   2.8975746  )
        11        Li     tau(  11) = (   0.2500016   0.1443347   3.0767980  )
        12        Li     tau(  12) = (   0.5000000   0.2886727   2.6883723  )
        13        Li     tau(  13) = (   0.2499990   0.4330120   2.5819621  )
        14        Li     tau(  14) = (   0.5000000   0.5773534   2.1935092  )
        15        Li     tau(  15) = (   0.7500020   0.7216914   2.3727796  )
        16        Li     tau(  16) = (   0.2499988   0.4330162   2.2700489  )
        17        Li     tau(  17) = (   0.5000000   0.5773506   2.4863695  )
        18        Li     tau(  18) = (   0.7499969   0.7216940   2.0639490  )
        19        Li     tau(  19) = (   0.2500003   0.4330114   3.2064043  )
        20        Li     tau(  20) = (   0.5000000   0.5773461   2.7839663  )
        21        Li     tau(  21) = (   0.7500017   0.7216841   3.0002588  )
        22        Li     tau(  22) = (   0.2499994   0.4330083   2.8975737  )
        23        Li     tau(  23) = (   0.5000000   0.5773437   3.0767943  )
        24        Li     tau(  24) = (   0.7500022   0.7216874   2.6883714  )
        25        Li     tau(  25) = (   0.5000000   0.0000012   2.5819634  )
        26        Li     tau(  26) = (   0.7499997   0.1443432   2.1935100  )
        27        Li     tau(  27) = (   1.0000000   0.2886787   2.3727791  )
        28        Li     tau(  28) = (   0.5000000   0.0000041   2.2700508  )
        29        Li     tau(  29) = (   0.7499994   0.1443405   2.4863717  )
        30        Li     tau(  30) = (   1.0000000   0.2886767   2.0639476  )
        31        Li     tau(  31) = (   0.5000000  -0.0000079   3.2064055  )
        32        Li     tau(  32) = (   0.7499985   0.1443369   2.7839684  )
        33        Li     tau(  33) = (   1.0000000   0.2886716   3.0002577  )
        34        Li     tau(  34) = (   0.5000000  -0.0000022   2.8975745  )
        35        Li     tau(  35) = (   0.7499984   0.1443347   3.0767980  )
        36        Li     tau(  36) = (   1.0000000   0.2886755   2.6883702  )
        37        Li     tau(  37) = (   0.7500010   0.4330120   2.5819621  )
        38        Li     tau(  38) = (   1.0000000   0.5773539   2.1935051  )
        39        Li     tau(  39) = (   1.2499980   0.7216914   2.3727796  )
        40        Li     tau(  40) = (   0.7500012   0.4330162   2.2700489  )
        41        Li     tau(  41) = (   1.0000000   0.5773510   2.4863671  )
        42        Li     tau(  42) = (   1.2500031   0.7216940   2.0639490  )
        43        Li     tau(  43) = (   0.7499997   0.4330114   3.2064043  )
        44        Li     tau(  44) = (   1.0000000   0.5773480   2.7839636  )
        45        Li     tau(  45) = (   1.2499983   0.7216841   3.0002588  )
        46        Li     tau(  46) = (   0.7500006   0.4330083   2.8975737  )
        47        Li     tau(  47) = (   1.0000000   0.5773451   3.0767916  )
        48        Li     tau(  48) = (   1.2499978   0.7216874   2.6883714  )

   Crystallographic axes

     site n.     atom                  positions (cryst. coord.)
         1        Li     tau(   1) = (  0.0000015  0.0000031  0.4899052  )
         2        Li     tau(   2) = (  0.3333369  0.1666732  0.4161996  )
         3        Li     tau(   3) = (  0.6666674  0.3333349  0.4502146  )
         4        Li     tau(   4) = (  0.0000032  0.0000064  0.4307225  )
         5        Li     tau(   5) = (  0.3333356  0.1666700  0.4717676  )
[...]
     atom   28 type  1   force =     0.00000312   -0.00000201    8.60090308
     atom   29 type  1   force =    -0.00002845   -0.00000075    3.46446327
     atom   30 type  1   force =     0.00000861    0.00000788   12.39843435
     atom   31 type  1   force =     0.00000256    0.00000939  -12.39848148
     atom   32 type  1   force =     0.00000787   -0.00004480   -3.46443742
     atom   33 type  1   force =     0.00000334   -0.00003070   -8.60116516
     atom   34 type  1   force =     0.00000254   -0.00002470   -5.78863343
     atom   35 type  1   force =     0.00001057   -0.00001908  -10.40571257
     atom   36 type  1   force =     0.00000392   -0.00000998   -1.32279650
     atom   37 type  1   force =    -0.00000425    0.00002885    1.32284819
     atom   38 type  1   force =     0.00000276    0.00000352   10.40578082
     atom   39 type  1   force =    -0.00000135   -0.00002980    5.78854521
     atom   40 type  1   force =    -0.00003670    0.00001396    8.60126793
     atom   41 type  1   force =     0.00000335    0.00003126    3.46454821
     atom   42 type  1   force =     0.00001532   -0.00002600   12.39841931
     atom   43 type  1   force =    -0.00000573   -0.00000203  -12.39845826
     atom   44 type  1   force =     0.00000335    0.00004636   -3.46434358
     atom   45 type  1   force =     0.00001253    0.00001734   -8.60118857
     atom   46 type  1   force =     0.00000308    0.00001973   -5.78855648
     atom   47 type  1   force =     0.00000334    0.00001587  -10.40551944
     atom   48 type  1   force =    -0.00000943    0.00000723   -1.32280103
     The core correction contribution to forces
     atom    1 type  1   force =     0.00000000    0.00000000    0.00000000
     atom    2 type  1   force =     0.00000000    0.00000000    0.00000000
     atom    3 type  1   force =     0.00000000    0.00000000    0.00000000
     atom    4 type  1   force =     0.00000000    0.00000000    0.00000000
     atom    5 type  1   force =     0.00000000    0.00000000    0.00000000
     atom    6 type  1   force =     0.00000000    0.00000000    0.00000000
     atom    7 type  1   force =     0.00000000    0.00000000    0.00000000
     atom    8 type  1   force =     0.00000000    0.00000000    0.00000000
     atom    9 type  1   force =     0.00000000    0.00000000    0.00000000
     atom   10 type  1   force =     0.00000000    0.00000000    0.00000000
     atom   11 type  1   force =     0.00000000    0.00000000    0.00000000
     atom   12 type  1   force =     0.00000000    0.00000000    0.00000000
     atom   13 type  1   force =     0.00000000    0.00000000    0.00000000
     atom   14 type  1   force =     0.00000000    0.00000000    0.00000000
     atom   15 type  1   force =     0.00000000    0.00000000    0.00000000
     atom   16 type  1   force =     0.00000000    0.00000000    0.00000000
     atom   17 type  1   force =     0.00000000    0.00000000    0.00000000
     atom   18 type  1   force =     0.00000000    0.00000000    0.00000000
     atom   19 type  1   force =     0.00000000    0.00000000    0.00000000
     atom   20 type  1   force =     0.00000000    0.00000000    0.00000000
     atom   21 type  1   force =     0.00000000    0.00000000    0.00000000
     atom   22 type  1   force =     0.00000000    0.00000000    0.00000000
     atom   23 type  1   force =     0.00000000    0.00000000    0.00000000
     atom   24 type  1   force =     0.00000000    0.00000000    0.00000000
     atom   25 type  1   force =     0.00000000    0.00000000    0.00000000
     atom   26 type  1   force =     0.00000000    0.00000000    0.00000000
     atom   27 type  1   force =     0.00000000    0.00000000    0.00000000
     atom   28 type  1   force =     0.00000000    0.00000000    0.00000000
     atom   29 type  1   force =     0.00000000    0.00000000    0.00000000
     atom   30 type  1   force =     0.00000000    0.00000000    0.00000000
     atom   31 type  1   force =     0.00000000    0.00000000    0.00000000
     atom   32 type  1   force =     0.00000000    0.00000000    0.00000000
     atom   33 type  1   force =     0.00000000    0.00000000    0.00000000
     atom   34 type  1   force =     0.00000000    0.00000000    0.00000000
     atom   35 type  1   force =     0.00000000    0.00000000    0.00000000
     atom   36 type  1   force =     0.00000000    0.00000000    0.00000000
     atom   37 type  1   force =     0.00000000    0.00000000    0.00000000
     atom   38 type  1   force =     0.00000000    0.00000000    0.00000000
     atom   39 type  1   force =     0.00000000    0.00000000    0.00000000
     atom   40 type  1   force =     0.00000000    0.00000000    0.00000000
     atom   41 type  1   force =     0.00000000    0.00000000    0.00000000
     atom   42 type  1   force =     0.00000000    0.00000000    0.00000000
     atom   43 type  1   force =     0.00000000    0.00000000    0.00000000
     atom   44 type  1   force =     0.00000000    0.00000000    0.00000000
     atom   45 type  1   force =     0.00000000    0.00000000    0.00000000
     atom   46 type  1   force =     0.00000000    0.00000000    0.00000000
     atom   47 type  1   force =     0.00000000    0.00000000    0.00000000
     atom   48 type  1   force =     0.00000000    0.00000000    0.00000000
     The Hubbard contrib.    to forces
     atom    1 type  1   force =     0.00000000    0.00000000    0.00000000
     atom    2 type  1   force =     0.00000000    0.00000000    0.00000000
     atom    3 type  1   force =     0.00000000    0.00000000    0.00000000
     atom    4 type  1   force =     0.00000000    0.00000000    0.00000000
     atom    5 type  1   force =     0.00000000    0.00000000    0.00000000
     atom    6 type  1   force =     0.00000000    0.00000000    0.00000000
     atom    7 type  1   force =     0.00000000    0.00000000    0.00000000
     atom    8 type  1   force =     0.00000000    0.00000000    0.00000000
     atom    9 type  1   force =     0.00000000    0.00000000    0.00000000
     atom   10 type  1   force =     0.00000000    0.00000000    0.00000000
     atom   11 type  1   force =     0.00000000    0.00000000    0.00000000
     atom   12 type  1   force =     0.00000000    0.00000000    0.00000000
     atom   13 type  1   force =     0.00000000    0.00000000    0.00000000
     atom   14 type  1   force =     0.00000000    0.00000000    0.00000000
     atom   15 type  1   force =     0.00000000    0.00000000    0.00000000
     atom   16 type  1   force =     0.00000000    0.00000000    0.00000000
     atom   17 type  1   force =     0.00000000    0.00000000    0.00000000
     atom   18 type  1   force =     0.00000000    0.00000000    0.00000000
     atom   19 type  1   force =     0.00000000    0.00000000    0.00000000
     atom   20 type  1   force =     0.00000000    0.00000000    0.00000000
     atom   21 type  1   force =     0.00000000    0.00000000    0.00000000
     atom   22 type  1   force =     0.00000000    0.00000000    0.00000000
     atom   23 type  1   force =     0.00000000    0.00000000    0.00000000
     atom   24 type  1   force =     0.00000000    0.00000000    0.00000000
     atom   25 type  1   force =     0.00000000    0.00000000    0.00000000
     atom   26 type  1   force =     0.00000000    0.00000000    0.00000000
     atom   27 type  1   force =     0.00000000    0.00000000    0.00000000
     atom   28 type  1   force =     0.00000000    0.00000000    0.00000000
     atom   29 type  1   force =     0.00000000    0.00000000    0.00000000
     atom   30 type  1   force =     0.00000000    0.00000000    0.00000000
     atom   31 type  1   force =     0.00000000    0.00000000    0.00000000
     atom   32 type  1   force =     0.00000000    0.00000000    0.00000000
     atom   33 type  1   force =     0.00000000    0.00000000    0.00000000
     atom   34 type  1   force =     0.00000000    0.00000000    0.00000000
     atom   35 type  1   force =     0.00000000    0.00000000    0.00000000
     atom   36 type  1   force =     0.00000000    0.00000000    0.00000000
     atom   37 type  1   force =     0.00000000    0.00000000    0.00000000
     atom   38 type  1   force =     0.00000000    0.00000000    0.00000000
     atom   39 type  1   force =     0.00000000    0.00000000    0.00000000
     atom   40 type  1   force =     0.00000000    0.00000000    0.00000000
     atom   41 type  1   force =     0.00000000    0.00000000    0.00000000
     atom   42 type  1   force =     0.00000000    0.00000000    0.00000000
     atom   43 type  1   force =     0.00000000    0.00000000    0.00000000
     atom   44 type  1   force =     0.00000000    0.00000000    0.00000000
     atom   45 type  1   force =     0.00000000    0.00000000    0.00000000
     atom   46 type  1   force =     0.00000000    0.00000000    0.00000000
     atom   47 type  1   force =     0.00000000    0.00000000    0.00000000
     atom   48 type  1   force =     0.00000000    0.00000000    0.00000000
     The SCF correction term to forces
     atom    1 type  1   force =     0.00000000    0.00000002   -0.00000010
     atom    2 type  1   force =     0.00000003    0.00000002    0.00000236
     atom    3 type  1   force =    -0.00000000   -0.00000003    0.00000022
     atom    4 type  1   force =    -0.00000000    0.00000002   -0.00000048
     atom    5 type  1   force =     0.00000003    0.00000001    0.00000009
     atom    6 type  1   force =     0.00000000   -0.00000003    0.00000459
     atom    7 type  1   force =     0.00000000   -0.00000000   -0.00000466
     atom    8 type  1   force =    -0.00000003    0.00000000   -0.00000014
     atom    9 type  1   force =     0.00000000    0.00000003    0.00000060
     atom   10 type  1   force =    -0.00000000    0.00000002   -0.00000016
     atom   11 type  1   force =    -0.00000004    0.00000002   -0.00000228
     atom   12 type  1   force =    -0.00000000   -0.00000002   -0.00000007
     atom   13 type  1   force =    -0.00000000   -0.00000001   -0.00000012
     atom   14 type  1   force =     0.00000000   -0.00000003    0.00000240
     atom   15 type  1   force =     0.00000003    0.00000001    0.00000025
     atom   16 type  1   force =     0.00000003   -0.00000002   -0.00000045
     atom   17 type  1   force =    -0.00000000   -0.00000003    0.00000008
     atom   18 type  1   force =    -0.00000001   -0.00000000    0.00000463
     atom   19 type  1   force =    -0.00000002    0.00000000   -0.00000456
     atom   20 type  1   force =    -0.00000000    0.00000002   -0.00000011
     atom   21 type  1   force =    -0.00000003    0.00000000    0.00000059
     atom   22 type  1   force =    -0.00000002   -0.00000001   -0.00000016
     atom   23 type  1   force =     0.00000000    0.00000002   -0.00000229
     atom   24 type  1   force =     0.00000001    0.00000001   -0.00000005
     atom   25 type  1   force =     0.00000000    0.00000001   -0.00000015
     atom   26 type  1   force =    -0.00000003    0.00000002    0.00000236
     atom   27 type  1   force =    -0.00000000   -0.00000000    0.00000025
     atom   28 type  1   force =     0.00000000    0.00000004   -0.00000043
     atom   29 type  1   force =    -0.00000003    0.00000001    0.00000009
     atom   30 type  1   force =     0.00000000   -0.00000003    0.00000462
     atom   31 type  1   force =    -0.00000000    0.00000001   -0.00000463
     atom   32 type  1   force =     0.00000003    0.00000000   -0.00000014
     atom   33 type  1   force =     0.00000000   -0.00000003    0.00000058
     atom   34 type  1   force =    -0.00000000   -0.00000000   -0.00000019
     atom   35 type  1   force =     0.00000004    0.00000002   -0.00000228
     atom   36 type  1   force =     0.00000000   -0.00000001   -0.00000005
     atom   37 type  1   force =     0.00000000   -0.00000001   -0.00000012
     atom   38 type  1   force =     0.00000000    0.00000000    0.00000234
     atom   39 type  1   force =    -0.00000003    0.00000001    0.00000025
     atom   40 type  1   force =    -0.00000003   -0.00000002   -0.00000045
     atom   41 type  1   force =    -0.00000000    0.00000003    0.00000012
     atom   42 type  1   force =     0.00000001   -0.00000000    0.00000463
     atom   43 type  1   force =     0.00000002    0.00000000   -0.00000456
     atom   44 type  1   force =    -0.00000000   -0.00000001   -0.00000015
     atom   45 type  1   force =     0.00000003    0.00000000    0.00000059
     atom   46 type  1   force =     0.00000002   -0.00000001   -0.00000016
     atom   47 type  1   force =     0.00000000   -0.00000003   -0.00000228
     atom   48 type  1   force =    -0.00000001    0.00000001   -0.00000005

     Total force =     0.001767     Total SCF correction =     0.000015
     Energy error            =      5.1E-06 Ry
     Gradient error          =      3.9E-04 Ry/Bohr

     bfgs converged in  17 scf cycles and  16 bfgs steps
     (criteria: energy <  1.0E-05 Ry, force <  3.9E-04 Ry/Bohr)

     End of BFGS Geometry Optimization

     Final energy             =    -721.7572255747 Ry

     File ./Li/Lithium.bfgs deleted, as requested
Begin final coordinates

ATOMIC_POSITIONS (angstrom)
Li              -0.0000000100        0.0000213102       25.0396408881
Li               2.4290685140        1.4024405963       21.2219740552
Li               4.8580444100        2.8048636382       23.1292189992
Li               0.0000000100        0.0000489229       21.9905243398
Li               2.4290472823        1.4024290154       24.1227101838
Li               4.8580445000        2.8048336061       20.1536903826
Li               0.0000000000       -0.0000628374       31.0532986913
Li               2.4290090631        1.4023523239       27.0843233796
Li               4.8580444100        2.8047409783       29.2166036178
Li              -0.0000000100       -0.0000459237       28.0778313197
Li               2.4289981229        1.4023523635       29.9850104798
Li               4.8580444200        2.8047685947       26.1674391652
Li               2.4290161561        4.2072042389       25.0396170745
Li               4.8580443900        5.6096111798       21.2219852271
Li               7.2870320805        7.0119915482       23.1292284239
Li               2.4290212243        4.2072319813       21.9905108909
Li               4.8580444100        5.6095898300       24.1227050997
Li               7.2870597207        7.0120350887       20.1536909220
Li               2.4290048990        4.2071820357       31.0532861056
Li               4.8580444000        5.6095772109       27.0843004313
Li               7.2870774732        7.0119564718       29.2164475257
Li               2.4290503447        4.2071470005       28.0778192123
Li               4.8580444000        5.6095788919       29.9849592297
Li               7.2870630425        7.0119710500       26.1673954619
Li               4.8580444000       -0.0000137225       25.0397045320
Li               7.2870203060        1.4024405763       21.2219742052
Li               9.7160888200        2.8048534693       23.1292055351
Li               4.8580443900        0.0000228911       21.9906849760
Li               7.2870415377        1.4024290154       24.1227102638
Li               9.7160887400        2.8048039326       20.1536601775
Li               4.8580444000       -0.0000912263       31.0532927602
Li               7.2870797569        1.4023523239       27.0843234296
Li               9.7160888300        2.8047310833       29.2164443855
Li               4.8580444000       -0.0000040181       28.0778401846
Li               7.2870906971        1.4023523535       29.9850105198
Li               9.7160888200        2.8047890788       26.1673949857
Li               7.2870726540        4.2072042489       25.0396170745
Li               9.7160888400        5.6096515023       21.2219340442
Li              12.1451455695        7.0119915582       23.1292284339
Li               7.2870675857        4.2072320013       21.9905109009
Li               9.7160888300        5.6096278238       24.1226770636
Li              12.1451179293        7.0120351987       20.1536909320
Li               7.2870839110        4.2071820457       31.0532860956
Li               9.7160888300        5.6095871578       27.0842753114
Li              12.1451001769        7.0119564718       29.2164475257
Li               7.2870384753        4.2071470005       28.0778192023
Li               9.7160888300        5.6095225557       29.9849214705
Li              12.1451146175        7.0119710600       26.1673954619
End final coordinates

     Writing all to output data dir ./Li/Lithium.save/ :
     XML data file

     General routines

     Parallel routines

     PAW routines

     Environ routines

   This run was terminated on:   3:19:16   3Jan2025

   JOB DONE.