     Program PWSCF v.7.4 starts on 17Jan2025 at 12:13:16

     Reading input from espresso.pwi
Warning: card &CELL ignored
Warning: card    PRESS_CONV_THR   = 0.1 ignored
Warning: card    CELL_DOFREE      = 'ALL' ignored
Warning: card / ignored
Warning: card &FCP ignored
Warning: card / ignored
Warning: card &RISM ignored
Warning: card / ignored

     Current dimensions of program PWSCF are:
     Max number of different atomic species (ntypx) = 10
     Max number of k-points (npk) =  40000
     Max angular momentum in pseudopotentials (lmaxx) =  4

     IMPORTANT: XC functional enforced from input :
     Exchange-correlation= PBE
                           (   1   4   3   4   0   0   0)
     Any further DFT definition will be discarded
     Please, verify this is what you really want

     Reading input from environ.in:
     * using ionic solvent mode
     * setting boundary derivatives method to SSCS default
     * setting electrolyte-boundary derivatives method to SSCS default

Environ Warning (1001): card EOF ignored

     K-points division:     npool     =       2
     R & G space division:  proc/nbgrp/npool/nimage =     192
     Subspace diagonalization in iterative solution of the eigenvalue problem:
     a serial algorithm will be used

     Using Slab Decomposition

     bravais-lattice index     =            8
     lattice parameter (alat)  =      11.2436  a.u.
     unit-cell volume          =   18353.5537 (a.u.)^3
     number of atoms/cell      =           24
     number of atomic types    =            1
     number of electrons       =        72.00
     number of Kohn-Sham states=           54
     kinetic-energy cutoff     =      80.0000  Ry
     charge density cutoff     =     800.0000  Ry
     scf convergence threshold =      1.0E-16
     mixing beta               =       0.2000
     number of iterations used =            8  local-TF  mixing
     Exchange-correlation= PBE
                           (   1   4   3   4   0   0   0)

                                  Environ Setup Summary

          O. Andreussi, I. Dabo and N. Marzari, J. Chem. Phys. 136, 064102 (2012)
          F. Nattino, M. Truscott, N. Marzari, and O. Andreussi, J. Chem. Phys. 150, 041722 (2019)

     in publications or presentations arising from this work.

     Parameters

     compensation onset threshold      =               0.1000E+00
     static permittivity               =                    89.90
     surface tension in input (dyn/cm) =                    37.30
     surface tension in internal units =               0.4792E-04

     Solvent Boundary

     solvent mode                      =                    ionic
     derivatives method                =                   lowmem
     electrolyte derivatives method    =                   lowmem
     numerical core for derivatives    =                      fft
     switching function adopted        =                     SCCS
     density limit for vacuum region   =               0.5000E-02
     density limit for bulk solvent    =               0.1000E-03
     soft-sphere radius mode           =                    bondi
     soft-sphere softness              =                     0.50
     alpha                             =                     1.32

     Electrostatic Setup

     electrostatic problem to solve    =                    modpb
     numerical solver adopted          =                   newton
     type of auxiliary density adopted =                     none
     numerical core for poisson        =                      fft
     adopting a nested solver scheme
     inner solver                      =                       cg
     inner core                        =                      fft
     type of pbc corrections           =                parabolic
     numerical core for corrections    =                      1da

     >>>>> Grand-Canonical SCF is activated <<<<<
     Initial Total Charge  =     0.000000 e
     Target Fermi Energy   =    -4.904000 eV
     Thr. of Fermi Energy  =     0.001000 eV
     Wave-shift of Kerker  =     0.400000 bohr^-1
     Wave-shift of Hartree =     1.500000 bohr^-1
     Mixing Rate of Fermi  =     0.050000

     celldm(1)=  11.243615  celldm(2)=   1.632993  celldm(3)=   7.907113
     celldm(4)=   0.000000  celldm(5)=   0.000000  celldm(6)=   0.000000

     crystal axes: (cart. coord. in units of alat)
               a(1) = (   1.000000   0.000000   0.000000 )
               a(2) = (   0.000000   1.632993   0.000000 )
               a(3) = (   0.000000   0.000000   7.907113 )

     reciprocal axes: (cart. coord. in units 2 pi/alat)
               b(1) = (  1.000000  0.000000  0.000000 )
               b(2) = (  0.000000  0.612372  0.000000 )
               b(3) = (  0.000000  0.000000  0.126468 )

     PseudoPot. # 1 for Li read from file:
     /work/e89/e89/ba3g18/Repos/Pseudopotentials/Pslibrary/Li.pbe-sl-kjpaw_psl.1.0.0.UPF
     MD5 check sum: 3f4d2cafebb47c6c3aa8ed472e6f074d
     Pseudo is Projector augmented-wave, Zval =  3.0
     Generated using 'atomic' code by A. Dal Corso  v.7.4
     Shape of augmentation charge: PSQ
     Using radial grid of 1017 points,  4 beta functions with:
                l(1) =   0
                l(2) =   0
                l(3) =   1
                l(4) =   1
     Q(r) pseudized with 0 coefficients

     atomic species   valence    mass     pseudopotential
     Li                3.00     6.94000     Li( 1.00)

      2 Sym. Ops. (no inversion) found

                                    s                        frac. trans.

      isym =  1     identity

 cryst.   s( 1) = (     1          0          0      )
                  (     0          1          0      )
                  (     0          0          1      )

 cart.    s( 1) = (  1.0000000  0.0000000  0.0000000 )
                  (  0.0000000  1.0000000  0.0000000 )
                  (  0.0000000  0.0000000  1.0000000 )

      isym =  2     inv. 180 deg rotation - cart. axis [0,1,0]

 cryst.   s( 2) = (     1          0          0      )
                  (     0         -1          0      )
                  (     0          0          1      )

 cart.    s( 2) = (  1.0000000  0.0000000  0.0000000 )
                  (  0.0000000 -1.0000000  0.0000000 )
                  (  0.0000000  0.0000000  1.0000000 )

     point group C_s (m)
     there are  2 classes
     the character table:

       E     s
A'     1.00  1.00
A''    1.00 -1.00

     the symmetry operations in each class and the name of the first element:

     E        1
          identity
     s        2
          inv. 180 deg rotation - cart. axis [0,1,0]

   Cartesian axes

     site n.     atom                  positions (alat units)
         1        Li     tau(   1) = (   0.5374406   0.8164966   4.6015859  )
         2        Li     tau(   2) = (   0.1291312   0.4082708   3.3055622  )
         3        Li     tau(   3) = (   0.3296789   0.8164966   3.6287726  )
         4        Li     tau(   4) = (   0.5509374   0.4082710   3.8067614  )
         5        Li     tau(   5) = (   0.1156384   0.8164966   4.1003402  )
         6        Li     tau(   6) = (   0.3370950   0.4082626   4.2783681  )
         7        Li     tau(   7) = (   0.5373843   1.6329931   4.6015198  )
         8        Li     tau(   8) = (   0.1291312   1.2247225   3.3055623  )
         9        Li     tau(   9) = (   0.3295844   1.6329931   3.6287521  )
        10        Li     tau(  10) = (   0.5509373   1.2247222   3.8067614  )
        11        Li     tau(  11) = (   0.1156426   1.6329931   4.1003085  )
        12        Li     tau(  12) = (   0.3370949   1.2247306   4.2783681  )
        13        Li     tau(  13) = (   1.0377610   0.8164966   4.6015477  )
        14        Li     tau(  14) = (   0.6290408   0.4082827   3.3055388  )
        15        Li     tau(  15) = (   0.8296536   0.8164966   3.6287952  )
        16        Li     tau(  16) = (   1.0509172   0.4082157   3.8067547  )
        17        Li     tau(  17) = (   0.6158071   0.8164966   4.1003806  )
        18        Li     tau(  18) = (   0.8368985   0.4082416   4.2783052  )
        19        Li     tau(  19) = (   1.0377778   1.6329931   4.6015881  )
        20        Li     tau(  20) = (   0.6290408   1.2247106   3.3055388  )
        21        Li     tau(  21) = (   0.8297482   1.6329931   3.6287727  )
        22        Li     tau(  22) = (   1.0509171   1.2247775   3.8067547  )
        23        Li     tau(  23) = (   0.6158440   1.6329931   4.1003740  )
        24        Li     tau(  24) = (   0.8368985   1.2247517   4.2783052  )

   Crystallographic axes

     site n.     atom                  positions (cryst. coord.)
         1        Li     tau(   1) = (  0.5374406  0.5000001  0.5819553  )
         2        Li     tau(   2) = (  0.1291312  0.2500138  0.4180492  )
         3        Li     tau(   3) = (  0.3296789  0.5000001  0.4589251  )
         4        Li     tau(   4) = (  0.5509374  0.2500139  0.4814351  )
         5        Li     tau(   5) = (  0.1156384  0.5000001  0.5185635  )
         6        Li     tau(   6) = (  0.3370950  0.2500088  0.5410784  )
         7        Li     tau(   7) = (  0.5373843  1.0000001  0.5819469  )
         8        Li     tau(   8) = (  0.1291312  0.7499864  0.4180492  )
         9        Li     tau(   9) = (  0.3295844  1.0000001  0.4589225  )
        10        Li     tau(  10) = (  0.5509373  0.7499862  0.4814351  )
        11        Li     tau(  11) = (  0.1156426  1.0000001  0.5185595  )
        12        Li     tau(  12) = (  0.3370949  0.7499913  0.5410784  )
        13        Li     tau(  13) = (  1.0377610  0.5000001  0.5819504  )
        14        Li     tau(  14) = (  0.6290408  0.2500211  0.4180462  )
        15        Li     tau(  15) = (  0.8296536  0.5000001  0.4589280  )
        16        Li     tau(  16) = (  1.0509172  0.2499801  0.4814342  )
        17        Li     tau(  17) = (  0.6158071  0.5000001  0.5185686  )
        18        Li     tau(  18) = (  0.8368985  0.2499959  0.5410705  )
        19        Li     tau(  19) = (  1.0377778  1.0000001  0.5819555  )
        20        Li     tau(  20) = (  0.6290408  0.7499791  0.4180462  )
        21        Li     tau(  21) = (  0.8297482  1.0000001  0.4589251  )
        22        Li     tau(  22) = (  1.0509171  0.7500201  0.4814342  )
        23        Li     tau(  23) = (  0.6158440  1.0000001  0.5185678  )
        24        Li     tau(  24) = (  0.8368985  0.7500042  0.5410705  )

     number of k points=    24  Marzari-Vanderbilt smearing, width (Ry)=  0.0100
                       cart. coord. in units 2pi/alat
        k(    1) = (   0.0000000   0.0000000   0.0000000), wk =   0.0259740
        k(    2) = (   0.0000000   0.0874818   0.0000000), wk =   0.0519481
        k(    3) = (   0.0000000   0.1749636   0.0000000), wk =   0.0519481
        k(    4) = (   0.0000000   0.2624454   0.0000000), wk =   0.0519481
        k(    5) = (   0.0909091   0.0000000   0.0000000), wk =   0.0519481
        k(    6) = (   0.0909091   0.0874818   0.0000000), wk =   0.1038961
        k(    7) = (   0.0909091   0.1749636   0.0000000), wk =   0.1038961
[...]
     0.0000   0.0000   0.0000   0.0000   0.0000   0.0000

     the Fermi energy is    -4.9040 ev

!    total energy              =    -361.13194740 Ry
     total all-electron energy =      -361.132142 Ry
     estimated scf accuracy    <          7.7E-17 Ry

!    total charge of GC-SCF    =       3.67742242 e
     smearing contrib. (-TS)   =       0.00003308 Ry
     internal energy E=F+TS    =    -361.13198049 Ry

     The total energy is F=E-TS. E is the sum of the following terms:
     one-electron contribution =   -3126.17079010 Ry
     hartree contribution      =    1517.58773450 Ry
     xc contribution           =     -84.48728219 Ry
     ewald contribution        =    1431.08188854 Ry
     one-center paw contrib.   =       2.12408465 Ry
      -> PAW hartree energy AE =       7.05225509 Ry
      -> PAW hartree energy PS =      -6.82756966 Ry
      -> PAW xc energy AE      =      -3.41551698 Ry
      -> PAW xc energy PS      =       3.27981996 Ry
      -> total E_H with PAW    =    1517.81241994 Ry
      -> total E_XC with PAW   =     -84.62297921 Ry
     pot.stat. contrib. (-muN) =      -1.32548040 Ry
     electrostatic embedding   =      -2.58377490 Ry
     cavitation energy         =       0.02690039 Ry
     electrolyte free energy   =      -0.03996592 Ry
     correction to one-el term =     -97.34529507 Ry

     WARNING: you are using the parabolic pbc correction;
              the potential shift above must be added to
              band and Fermi energies.

     convergence has been achieved in  91 iterations
     The dielectric solvent contribution to forces
     atom    1 type  1   force =     0.00010532    0.00000008   -0.02158058
     atom    2 type  1   force =    -0.00008627    0.00000078    0.02155835
     atom    3 type  1   force =     0.00019348   -0.00000002   -0.05575116
     atom    4 type  1   force =    -0.00006987   -0.00000418   -0.01998358
     atom    5 type  1   force =     0.00006721    0.00000001    0.01998173
     atom    6 type  1   force =    -0.00020014   -0.00000208    0.05575185
     atom    7 type  1   force =     0.00011077    0.00000007   -0.02154010
     atom    8 type  1   force =    -0.00008627   -0.00000062    0.02155836
     atom    9 type  1   force =     0.00020407   -0.00000002   -0.05576229
     atom   10 type  1   force =    -0.00006987    0.00000419   -0.01998357
     atom   11 type  1   force =     0.00006757    0.00000000    0.01997682
     atom   12 type  1   force =    -0.00020014    0.00000204    0.05575186
     atom   13 type  1   force =     0.00004851    0.00000008   -0.02155898
     atom   14 type  1   force =    -0.00006766   -0.00000419    0.02157431
     atom   15 type  1   force =     0.00020215   -0.00000002   -0.05575566
     atom   16 type  1   force =    -0.00007162   -0.00000231   -0.01998446
     atom   17 type  1   force =     0.00007426    0.00000001    0.01998963
     atom   18 type  1   force =    -0.00019535   -0.00000127    0.05576624
     atom   19 type  1   force =     0.00004314    0.00000007   -0.02158636
     atom   20 type  1   force =    -0.00006766    0.00000435    0.02157432
     atom   21 type  1   force =     0.00019149   -0.00000002   -0.05576733
     atom   22 type  1   force =    -0.00007162    0.00000232   -0.01998445
     atom   23 type  1   force =     0.00007391    0.00000000    0.01998733
     atom   24 type  1   force =    -0.00019535    0.00000123    0.05576625

     Forces acting on atoms (cartesian axes, Ry/au):

     atom    1 type  1   force =     0.00028583    0.00000000    0.00003215
     atom    2 type  1   force =    -0.00020859    0.00000052   -0.00002879
     atom    3 type  1   force =    -0.00000024    0.00000000   -0.00009841
     atom    4 type  1   force =     0.00030718   -0.00001353   -0.00006791
     atom    5 type  1   force =    -0.00025698    0.00000000    0.00006828
     atom    6 type  1   force =    -0.00007208   -0.00000371    0.00008459
     atom    7 type  1   force =     0.00030984    0.00000000    0.00003358
     atom    8 type  1   force =    -0.00020859   -0.00000052   -0.00002879
     atom    9 type  1   force =     0.00006041    0.00000000   -0.00009779
     atom   10 type  1   force =     0.00030718    0.00001353   -0.00006791
     atom   11 type  1   force =    -0.00024487    0.00000000    0.00009340
     atom   12 type  1   force =    -0.00007208    0.00000371    0.00008459
     atom   13 type  1   force =     0.00007503    0.00000000    0.00002321
     atom   14 type  1   force =    -0.00015269   -0.00000186   -0.00002616
     atom   15 type  1   force =     0.00001698    0.00000000   -0.00011046
     atom   16 type  1   force =     0.00031749    0.00001738   -0.00005937
     atom   17 type  1   force =    -0.00036731    0.00000000    0.00005527
     atom   18 type  1   force =     0.00005564    0.00000207    0.00012662
     atom   19 type  1   force =     0.00005140    0.00000000    0.00002014
     atom   20 type  1   force =    -0.00015269    0.00000186   -0.00002616
     atom   21 type  1   force =    -0.00004396    0.00000000   -0.00011541
     atom   22 type  1   force =     0.00031749   -0.00001738   -0.00005937
     atom   23 type  1   force =    -0.00037998    0.00000000    0.00003809
     atom   24 type  1   force =     0.00005564   -0.00000207    0.00012662
     The non-local contrib.  to forces
     atom    1 type  1   force =     0.00006185    0.00000000    0.09198252
     atom    2 type  1   force =    -0.00003971    0.00000801   -0.09197916
     atom    3 type  1   force =     0.00072091    0.00000000   -0.04287815
     atom    4 type  1   force =    -0.00051013   -0.00001857    0.00345539
     atom    5 type  1   force =     0.00052572    0.00000000   -0.00346881
     atom    6 type  1   force =    -0.00077179   -0.00000277    0.04287057
     atom    7 type  1   force =     0.00006226    0.00000000    0.09199504
     atom    8 type  1   force =    -0.00003971   -0.00000801   -0.09197916
     atom    9 type  1   force =     0.00079280    0.00000000   -0.04289993
     atom   10 type  1   force =    -0.00051013    0.00001857    0.00345539
     atom   11 type  1   force =     0.00054059    0.00000000   -0.00343707
     atom   12 type  1   force =    -0.00077179    0.00000277    0.04287057
     atom   13 type  1   force =    -0.00001431    0.00000000    0.09196202
     atom   14 type  1   force =    -0.00000756   -0.00001352   -0.09196479
     atom   15 type  1   force =     0.00074237    0.00000000   -0.04291020
     atom   16 type  1   force =    -0.00048829    0.00001901    0.00349023
     atom   17 type  1   force =     0.00047205    0.00000000   -0.00347886
     atom   18 type  1   force =    -0.00069104   -0.00000045    0.04294176
     atom   19 type  1   force =    -0.00001509    0.00000000    0.09194719
     atom   20 type  1   force =    -0.00000756    0.00001352   -0.09196479
     atom   21 type  1   force =     0.00067023    0.00000000   -0.04293739
     atom   22 type  1   force =    -0.00048829   -0.00001901    0.00349023
     atom   23 type  1   force =     0.00045751    0.00000000   -0.00350336
     atom   24 type  1   force =    -0.00069104    0.00000045    0.04294176
     The ionic contribution  to forces
     atom    1 type  1   force =     0.00215941   -0.00000002    8.55002628
     atom    2 type  1   force =    -0.00108841    0.00000022   -8.54970204
     atom    3 type  1   force =     0.00034165    0.00000001   -5.00472822
     atom    4 type  1   force =    -0.00181621   -0.00037343   -2.19924471
     atom    5 type  1   force =     0.00215684   -0.00000002    2.19896019
     atom    6 type  1   force =    -0.00149951   -0.00009977    5.00495780
     atom    7 type  1   force =     0.00243631    0.00000003    8.54956822
     atom    8 type  1   force =    -0.00108841   -0.00000023   -8.54970199
     atom    9 type  1   force =     0.00159312    0.00000001   -5.00512306
     atom   10 type  1   force =    -0.00181620    0.00037341   -2.19924463
     atom   11 type  1   force =     0.00240845    0.00000004    2.19894972
     atom   12 type  1   force =    -0.00149951    0.00009975    5.00495798
     atom   13 type  1   force =    -0.00081171   -0.00000002    8.54954088
     atom   14 type  1   force =    -0.00026322   -0.00020943   -8.54974441
     atom   15 type  1   force =     0.00076825    0.00000001   -5.00490867
     atom   16 type  1   force =    -0.00120573    0.00031342   -2.19905130
     atom   17 type  1   force =     0.00086778   -0.00000002    2.19954551
     atom   18 type  1   force =     0.00039178   -0.00001835    5.00515861
     atom   19 type  1   force =    -0.00108602    0.00000003    8.54975147
     atom   20 type  1   force =    -0.00026321    0.00020942   -8.54974435
     atom   21 type  1   force =    -0.00048479    0.00000001   -5.00545994
     atom   22 type  1   force =    -0.00120572   -0.00031344   -2.19905122
     atom   23 type  1   force =     0.00061325    0.00000004    2.19912908
     atom   24 type  1   force =     0.00039179    0.00001833    5.00515880
     The local contribution  to forces
     atom    1 type  1   force =    -0.00204075   -0.00004252   -8.62039607
     atom    2 type  1   force =     0.00100463   -0.00005386    8.62009581
     atom    3 type  1   force =    -0.00125629   -0.00004371    5.10325911
     atom    4 type  1   force =     0.00269814    0.00033829    2.21570616
     atom    5 type  1   force =    -0.00300676   -0.00004493   -2.21540482
     atom    6 type  1   force =     0.00239732    0.00005747   -5.10349331
     atom    7 type  1   force =    -0.00229952   -0.00004393   -8.61998960
     atom    8 type  1   force =     0.00100695   -0.00003705    8.62009224
     atom    9 type  1   force =    -0.00252959   -0.00004452    5.10368749
     atom   10 type  1   force =     0.00270860   -0.00042699    2.21570374
     atom   11 type  1   force =    -0.00326149   -0.00004168   -2.21539606
     atom   12 type  1   force =     0.00240138   -0.00014430   -5.10349817
     atom   13 type  1   force =     0.00085252   -0.00004252   -8.61992072
     atom   14 type  1   force =     0.00018428    0.00017990    8.62011078
     atom   15 type  1   force =    -0.00169581   -0.00004371    5.10346406
     atom   16 type  1   force =     0.00207788   -0.00035709    2.21548732
     atom   17 type  1   force =    -0.00178142   -0.00004493   -2.21600100
     atom   18 type  1   force =     0.00054820   -0.00002130   -5.10373766
     atom   19 type  1   force =     0.00110936   -0.00004393   -8.62009217
     atom   20 type  1   force =     0.00018718   -0.00027081    8.62010662
     atom   21 type  1   force =    -0.00042089   -0.00004452    5.10404926
     atom   22 type  1   force =     0.00208834    0.00026839    2.21548490
     atom   23 type  1   force =    -0.00152465   -0.00004168   -2.21557496
     atom   24 type  1   force =     0.00055226   -0.00006554   -5.10374253
     The core correction contribution to forces
     atom    1 type  1   force =     0.00000000    0.00000000    0.00000000
     atom    2 type  1   force =     0.00000000    0.00000000    0.00000000
     atom    3 type  1   force =     0.00000000    0.00000000    0.00000000
     atom    4 type  1   force =     0.00000000    0.00000000    0.00000000
     atom    5 type  1   force =     0.00000000    0.00000000    0.00000000
     atom    6 type  1   force =     0.00000000    0.00000000    0.00000000
     atom    7 type  1   force =     0.00000000    0.00000000    0.00000000
     atom    8 type  1   force =     0.00000000    0.00000000    0.00000000
     atom    9 type  1   force =     0.00000000    0.00000000    0.00000000
     atom   10 type  1   force =     0.00000000    0.00000000    0.00000000
     atom   11 type  1   force =     0.00000000    0.00000000    0.00000000
     atom   12 type  1   force =     0.00000000    0.00000000    0.00000000
     atom   13 type  1   force =     0.00000000    0.00000000    0.00000000
     atom   14 type  1   force =     0.00000000    0.00000000    0.00000000
     atom   15 type  1   force =     0.00000000    0.00000000    0.00000000
     atom   16 type  1   force =     0.00000000    0.00000000    0.00000000
     atom   17 type  1   force =     0.00000000    0.00000000    0.00000000
     atom   18 type  1   force =     0.00000000    0.00000000    0.00000000
     atom   19 type  1   force =     0.00000000    0.00000000    0.00000000
     atom   20 type  1   force =     0.00000000    0.00000000    0.00000000
     atom   21 type  1   force =     0.00000000    0.00000000    0.00000000
     atom   22 type  1   force =     0.00000000    0.00000000    0.00000000
     atom   23 type  1   force =     0.00000000    0.00000000    0.00000000
     atom   24 type  1   force =     0.00000000    0.00000000    0.00000000
     The Hubbard contrib.    to forces
     atom    1 type  1   force =     0.00000000    0.00000000    0.00000000
     atom    2 type  1   force =     0.00000000    0.00000000    0.00000000
     atom    3 type  1   force =     0.00000000    0.00000000    0.00000000
     atom    4 type  1   force =     0.00000000    0.00000000    0.00000000
     atom    5 type  1   force =     0.00000000    0.00000000    0.00000000
     atom    6 type  1   force =     0.00000000    0.00000000    0.00000000
     atom    7 type  1   force =     0.00000000    0.00000000    0.00000000
     atom    8 type  1   force =     0.00000000    0.00000000    0.00000000
     atom    9 type  1   force =     0.00000000    0.00000000    0.00000000
     atom   10 type  1   force =     0.00000000    0.00000000    0.00000000
     atom   11 type  1   force =     0.00000000    0.00000000    0.00000000
     atom   12 type  1   force =     0.00000000    0.00000000    0.00000000
     atom   13 type  1   force =     0.00000000    0.00000000    0.00000000
     atom   14 type  1   force =     0.00000000    0.00000000    0.00000000
     atom   15 type  1   force =     0.00000000    0.00000000    0.00000000
     atom   16 type  1   force =     0.00000000    0.00000000    0.00000000
     atom   17 type  1   force =     0.00000000    0.00000000    0.00000000
     atom   18 type  1   force =     0.00000000    0.00000000    0.00000000
     atom   19 type  1   force =     0.00000000    0.00000000    0.00000000
     atom   20 type  1   force =     0.00000000    0.00000000    0.00000000
     atom   21 type  1   force =     0.00000000    0.00000000    0.00000000
     atom   22 type  1   force =     0.00000000    0.00000000    0.00000000
     atom   23 type  1   force =     0.00000000    0.00000000    0.00000000
     atom   24 type  1   force =     0.00000000    0.00000000    0.00000000
     The SCF correction term to forces
     atom    1 type  1   force =    -0.00000000   -0.00000000   -0.00000000
     atom    2 type  1   force =     0.00000000    0.00000000    0.00000000
     atom    3 type  1   force =     0.00000000    0.00000000   -0.00000000
     atom    4 type  1   force =     0.00000000    0.00000000   -0.00000000
     atom    5 type  1   force =    -0.00000000    0.00000000   -0.00000000
     atom    6 type  1   force =    -0.00000000    0.00000000    0.00000000
     atom    7 type  1   force =    -0.00000000   -0.00000000    0.00000000
     atom    8 type  1   force =     0.00000000   -0.00000000    0.00000000
     atom    9 type  1   force =     0.00000000    0.00000000   -0.00000000
     atom   10 type  1   force =     0.00000000   -0.00000000   -0.00000000
     atom   11 type  1   force =    -0.00000000    0.00000000   -0.00000000
     atom   12 type  1   force =    -0.00000000   -0.00000000    0.00000000
     atom   13 type  1   force =    -0.00000000   -0.00000000   -0.00000000
     atom   14 type  1   force =     0.00000000    0.00000000    0.00000000
     atom   15 type  1   force =     0.00000000    0.00000000   -0.00000000
     atom   16 type  1   force =    -0.00000000    0.00000000   -0.00000000
     atom   17 type  1   force =     0.00000000    0.00000000   -0.00000000
     atom   18 type  1   force =     0.00000000    0.00000000    0.00000000
     atom   19 type  1   force =    -0.00000000    0.00000000    0.00000000
     atom   20 type  1   force =     0.00000000   -0.00000000    0.00000000
     atom   21 type  1   force =     0.00000000    0.00000000   -0.00000000
     atom   22 type  1   force =    -0.00000000   -0.00000000   -0.00000000
     atom   23 type  1   force =     0.00000000   -0.00000000   -0.00000000
     atom   24 type  1   force =     0.00000000   -0.00000000    0.00000000

     Total force =     0.001127     Total SCF correction =     0.000000

     Writing all to output data dir ./Li/Lithium.save/ :
     XML data file

     General routines

     Parallel routines

     PAW routines

     Environ routines

   This run was terminated on:  12:41:55  17Jan2025

   JOB DONE.