     Program PWSCF v.7.4 starts on 21Jan2025 at 10:53:45

     Reading input from espresso.pwi
Warning: card &CELL ignored
Warning: card    PRESS_CONV_THR   = 0.1 ignored
Warning: card    CELL_DOFREE      = 'ALL' ignored
Warning: card / ignored
Warning: card &FCP ignored
Warning: card / ignored
Warning: card &RISM ignored
Warning: card / ignored

     Current dimensions of program PWSCF are:
     Max number of different atomic species (ntypx) = 10
     Max number of k-points (npk) =  40000
     Max angular momentum in pseudopotentials (lmaxx) =  4

     IMPORTANT: XC functional enforced from input :
     Exchange-correlation= PBE
                           (   1   4   3   4   0   0   0)
     Any further DFT definition will be discarded
     Please, verify this is what you really want

     Reading input from environ.in:
     * using ionic solvent mode
     * setting boundary derivatives method to SSCS default
     * setting electrolyte-boundary derivatives method to SSCS default

Environ Warning (1001): card EOF ignored

     Found identity + (  0.5000  0.0000  0.0000) symmetry
     This is a supercell, fractional translations are disabled

     K-points division:     npool     =       2
     R & G space division:  proc/nbgrp/npool/nimage =     192
     Subspace diagonalization in iterative solution of the eigenvalue problem:
     a serial algorithm will be used

     Using Slab Decomposition

     bravais-lattice index     =            8
     lattice parameter (alat)  =      12.9830  a.u.
     unit-cell volume          =   16814.9378 (a.u.)^3
     number of atoms/cell      =           20
     number of atomic types    =            1
     number of electrons       =        60.00
     number of Kohn-Sham states=           45
     kinetic-energy cutoff     =      80.0000  Ry
     charge density cutoff     =     800.0000  Ry
     scf convergence threshold =      1.0E-16
     mixing beta               =       0.2000
     number of iterations used =            8  local-TF  mixing
     Exchange-correlation= PBE
                           (   1   4   3   4   0   0   0)

                                  Environ Setup Summary

          O. Andreussi, I. Dabo and N. Marzari, J. Chem. Phys. 136, 064102 (2012)
          F. Nattino, M. Truscott, N. Marzari, and O. Andreussi, J. Chem. Phys. 150, 041722 (2019)

     in publications or presentations arising from this work.

     Parameters

     compensation onset threshold      =               0.1000E+00
     static permittivity               =                    89.90
     surface tension in input (dyn/cm) =                    37.30
     surface tension in internal units =               0.4792E-04

     Solvent Boundary

     solvent mode                      =                    ionic
     derivatives method                =                   lowmem
     electrolyte derivatives method    =                   lowmem
     numerical core for derivatives    =                      fft
     switching function adopted        =                     SCCS
     density limit for vacuum region   =               0.5000E-02
     density limit for bulk solvent    =               0.1000E-03
     soft-sphere radius mode           =                    bondi
     soft-sphere softness              =                     0.50
     alpha                             =                     1.32

     Electrostatic Setup

     electrostatic problem to solve    =                    modpb
     numerical solver adopted          =                   newton
     type of auxiliary density adopted =                     none
     numerical core for poisson        =                      fft
     adopting a nested solver scheme
     inner solver                      =                       cg
     inner core                        =                      fft
     type of pbc corrections           =                parabolic
     numerical core for corrections    =                      1da

     >>>>> Grand-Canonical SCF is activated <<<<<
     Initial Total Charge  =     0.000000 e
     Target Fermi Energy   =    -5.404000 eV
     Thr. of Fermi Energy  =     0.001000 eV
     Wave-shift of Kerker  =     0.400000 bohr^-1
     Wave-shift of Hartree =     1.500000 bohr^-1
     Mixing Rate of Fermi  =     0.050000

     celldm(1)=  12.983009  celldm(2)=   1.118034  celldm(3)=   6.872491
     celldm(4)=   0.000000  celldm(5)=   0.000000  celldm(6)=   0.000000

     crystal axes: (cart. coord. in units of alat)
               a(1) = (   1.000000   0.000000   0.000000 )
               a(2) = (   0.000000   1.118034   0.000000 )
               a(3) = (   0.000000   0.000000   6.872491 )

     reciprocal axes: (cart. coord. in units 2 pi/alat)
               b(1) = (  1.000000  0.000000  0.000000 )
               b(2) = (  0.000000  0.894427  0.000000 )
               b(3) = (  0.000000  0.000000  0.145508 )

     PseudoPot. # 1 for Li read from file:
     /work/e89/e89/ba3g18/Repos/Pseudopotentials/Pslibrary/Li.pbe-sl-kjpaw_psl.1.0.0.UPF
     MD5 check sum: 3f4d2cafebb47c6c3aa8ed472e6f074d
     Pseudo is Projector augmented-wave, Zval =  3.0
     Generated using 'atomic' code by A. Dal Corso  v.7.4
     Shape of augmentation charge: PSQ
     Using radial grid of 1017 points,  4 beta functions with:
                l(1) =   0
                l(2) =   0
                l(3) =   1
                l(4) =   1
     Q(r) pseudized with 0 coefficients

     atomic species   valence    mass     pseudopotential
     Li                3.00     6.94000     Li( 1.00)

      2 Sym. Ops. (no inversion) found

                                    s                        frac. trans.

      isym =  1     identity

 cryst.   s( 1) = (     1          0          0      )
                  (     0          1          0      )
                  (     0          0          1      )

 cart.    s( 1) = (  1.0000000  0.0000000  0.0000000 )
                  (  0.0000000  1.0000000  0.0000000 )
                  (  0.0000000  0.0000000  1.0000000 )

      isym =  2     inv. 180 deg rotation - cart. axis [1,0,0]

 cryst.   s( 2) = (    -1          0          0      )
                  (     0          1          0      )
                  (     0          0          1      )

 cart.    s( 2) = ( -1.0000000  0.0000000  0.0000000 )
                  (  0.0000000  1.0000000  0.0000000 )
                  (  0.0000000  0.0000000  1.0000000 )

     point group C_s (m)
     there are  2 classes
     the character table:

       E     s
A'     1.00  1.00
A''    1.00 -1.00

     the symmetry operations in each class and the name of the first element:

     E        1
          identity
     s        2
          inv. 180 deg rotation - cart. axis [1,0,0]

   Cartesian axes

     site n.     atom                  positions (alat units)
         1        Li     tau(   1) = (  -0.0000000   0.4603141   3.6871226  )
         2        Li     tau(   2) = (  -0.0000000   0.8796936   3.5156909  )
         3        Li     tau(   3) = (  -0.0000000   0.2378880   3.2539306  )
         4        Li     tau(   4) = (  -0.0000000   0.6155478   2.9954501  )
         5        Li     tau(   5) = (  -0.0000000   0.1327140   4.0468618  )
         6        Li     tau(   6) = (   0.2500001   0.5737524   3.3568007  )
         7        Li     tau(   7) = (   0.2500000   0.9931299   3.1853675  )
         8        Li     tau(   8) = (   0.2500000   0.2026939   2.8256255  )
         9        Li     tau(   9) = (   0.2499999   0.8378965   3.8770398  )
        10        Li     tau(  10) = (   0.2499999   0.0975227   3.6185582  )
        11        Li     tau(  11) = (   0.5000000   0.4603142   3.6871226  )
        12        Li     tau(  12) = (   0.5000000   0.8796937   3.5156910  )
        13        Li     tau(  13) = (   0.5000000   0.2378880   3.2539306  )
        14        Li     tau(  14) = (   0.5000000   0.6155477   2.9954500  )
        15        Li     tau(  15) = (   0.5000000   0.1327133   4.0468610  )
        16        Li     tau(  16) = (   0.7499999   0.5737524   3.3568007  )
        17        Li     tau(  17) = (   0.7500000   0.9931299   3.1853675  )
        18        Li     tau(  18) = (   0.7500000   0.2026939   2.8256255  )
        19        Li     tau(  19) = (   0.7500001   0.8378965   3.8770398  )
        20        Li     tau(  20) = (   0.7500000   0.0975227   3.6185582  )

   Crystallographic axes

     site n.     atom                  positions (cryst. coord.)
         1        Li     tau(   1) = ( -0.0000000  0.4117175  0.5365045  )
         2        Li     tau(   2) = ( -0.0000000  0.7868219  0.5115599  )
         3        Li     tau(   3) = ( -0.0000000  0.2127735  0.4734718  )
         4        Li     tau(   4) = ( -0.0000000  0.5505626  0.4358609  )
         5        Li     tau(   5) = ( -0.0000000  0.1187030  0.5888493  )
         6        Li     tau(   6) = (  0.2500001  0.5131797  0.4884402  )
         7        Li     tau(   7) = (  0.2500000  0.8882824  0.4634953  )
         8        Li     tau(   8) = (  0.2500000  0.1812949  0.4111501  )
         9        Li     tau(   9) = (  0.2499999  0.7494374  0.5641389  )
        10        Li     tau(  10) = (  0.2499999  0.0872270  0.5265279  )
        11        Li     tau(  11) = (  0.5000000  0.4117175  0.5365045  )
        12        Li     tau(  12) = (  0.5000000  0.7868219  0.5115599  )
        13        Li     tau(  13) = (  0.5000000  0.2127735  0.4734718  )
        14        Li     tau(  14) = (  0.5000000  0.5505626  0.4358609  )
        15        Li     tau(  15) = (  0.5000000  0.1187024  0.5888492  )
        16        Li     tau(  16) = (  0.7499999  0.5131797  0.4884402  )
        17        Li     tau(  17) = (  0.7500000  0.8882824  0.4634953  )
        18        Li     tau(  18) = (  0.7500000  0.1812949  0.4111501  )
        19        Li     tau(  19) = (  0.7500001  0.7494374  0.5641389  )
        20        Li     tau(  20) = (  0.7500000  0.0872270  0.5265279  )

     number of k points=    30  Marzari-Vanderbilt smearing, width (Ry)=  0.0100
                       cart. coord. in units 2pi/alat
        k(    1) = (   0.0000000   0.0000000   0.0000000), wk =   0.0222222
        k(    2) = (   0.0000000   0.0993808   0.0000000), wk =   0.0444444
        k(    3) = (   0.0000000   0.1987616   0.0000000), wk =   0.0444444
        k(    4) = (   0.0000000   0.2981424   0.0000000), wk =   0.0444444
        k(    5) = (   0.0000000   0.3975232   0.0000000), wk =   0.0444444
        k(    6) = (   0.1000000   0.0000000   0.0000000), wk =   0.0444444
        k(    7) = (   0.1000000   0.0993808   0.0000000), wk =   0.0888889
        k(    8) = (   0.1000000   0.1987616   0.0000000), wk =   0.0888889
        k(    9) = (   0.1000000   0.2981424   0.0000000), wk =   0.0888889
        k(   10) = (   0.1000000   0.3975232   0.0000000), wk =   0.0888889
        k(   11) = (   0.2000000   0.0000000   0.0000000), wk =   0.0444444
        k(   12) = (   0.2000000   0.0993808   0.0000000), wk =   0.0888889
        k(   13) = (   0.2000000   0.1987616   0.0000000), wk =   0.0888889
        k(   14) = (   0.2000000   0.2981424   0.0000000), wk =   0.0888889
[...]
     electrostatic embedding   =      -3.07344814 Ry
     cavitation energy         =       0.02498500 Ry
     electrolyte free energy   =      -0.04952774 Ry
     correction to one-el term =     -93.88738583 Ry

     iteration # 73     ecut=    80.00 Ry     beta= 0.20
     Davidson diagonalization with overlap

     ethr =  1.00E-13,  avg # of iterations =  1.0

     negative rho (up, down):  3.226E-04 0.000E+00

     End of self-consistent calculation

          k = 0.0000 0.0000 0.0000 (203379 PWs)   bands (ev):

   -53.4175 -53.4174 -53.4162 -53.4162 -52.8951 -52.8951 -52.8938 -52.8938
   -52.4596 -52.4595 -52.4581 -52.4581 -52.0113 -52.0079 -52.0079 -52.0077
   -51.8957 -51.8895 -51.8895 -51.8860  -8.4695  -7.3592  -6.5985  -6.4716
    -6.0606  -6.0432  -6.0432  -5.5570  -5.0408  -5.0408  -4.8234  -4.5514
    -4.5514  -3.8767  -3.8767  -3.7127  -3.6933  -3.6933  -3.2956  -3.2351
    -2.6967  -2.1365  -2.1365  -1.7064  -1.7064

     occupation numbers
     1.0000   1.0000   1.0000   1.0000   1.0000   1.0000   1.0000   1.0000
     1.0000   1.0000   1.0000   1.0000   1.0000   1.0000   1.0000   1.0000
     1.0000   1.0000   1.0000   1.0000   1.0000   1.0000   1.0000   1.0000
     1.0000   1.0000   1.0000   1.0576   0.0000   0.0000   0.0000   0.0000
     0.0000   0.0000   0.0000   0.0000   0.0000   0.0000   0.0000   0.0000
     0.0000   0.0000   0.0000   0.0000   0.0000

[...]

          k = 0.4000 0.3975 0.0000 (203101 PWs)   bands (ev):

[...]

          k =-0.5000 0.0000 0.0000 (203092 PWs)   bands (ev):

[...]

          k =-0.5000 0.3975 0.0000 (202998 PWs)   bands (ev):

   -53.4168 -53.4168 -53.4168 -53.4168 -52.8944 -52.8944 -52.8944 -52.8944
   -52.4588 -52.4588 -52.4588 -52.4588 -52.0100 -52.0100 -52.0075 -52.0075
   -51.8936 -51.8936 -51.8867 -51.8867  -7.4947  -7.4947  -7.2785  -7.2785
    -6.3448  -6.3448  -6.1256  -6.1255  -4.9822  -4.9822  -4.0957  -4.0957
    -4.0307  -4.0307  -3.4720  -3.4720  -2.9642  -2.9642  -2.7896  -2.7896
    -2.4806  -2.4806  -1.9363  -1.9363  -1.5961

     occupation numbers
     1.0000   1.0000   1.0000   1.0000   1.0000   1.0000   1.0000   1.0000
     1.0000   1.0000   1.0000   1.0000   1.0000   1.0000   1.0000   1.0000
     1.0000   1.0000   1.0000   1.0000   1.0000   1.0000   1.0000   1.0000
     1.0000   1.0000   1.0000   1.0000   0.0000   0.0000   0.0000   0.0000
     0.0000   0.0000   0.0000   0.0000   0.0000   0.0000   0.0000   0.0000
     0.0000   0.0000   0.0000   0.0000   0.0000

     the Fermi energy is    -5.4040 ev

!    total energy              =    -301.09355264 Ry
     total all-electron energy =      -301.093715 Ry
     estimated scf accuracy    <          7.5E-17 Ry

!    total charge of GC-SCF    =       3.77118184 e
     smearing contrib. (-TS)   =      -0.00001286 Ry
     internal energy E=F+TS    =    -301.09353978 Ry

     The total energy is F=E-TS. E is the sum of the following terms:
     one-electron contribution =   -2384.80280514 Ry
     hartree contribution      =    1153.23676312 Ry
     xc contribution           =     -69.97887073 Ry
     ewald contribution        =    1097.16053724 Ry
     one-center paw contrib.   =       1.77407620 Ry
      -> PAW hartree energy AE =       7.31546410 Ry
      -> PAW hartree energy PS =      -7.09230774 Ry
      -> PAW xc energy AE      =      -3.46397961 Ry
      -> PAW xc energy PS      =       3.32922023 Ry
      -> total E_H with PAW    =    1153.45991947 Ry
      -> total E_XC with PAW   =     -70.11363011 Ry
     pot.stat. contrib. (-muN) =      -1.49786317 Ry
     electrostatic embedding   =      -3.07344817 Ry
     cavitation energy         =       0.02498500 Ry
     electrolyte free energy   =      -0.04952774 Ry
     correction to one-el term =     -93.88738638 Ry

     WARNING: you are using the parabolic pbc correction;
              the potential shift above must be added to
              band and Fermi energies.

     convergence has been achieved in  73 iterations
     The dielectric solvent contribution to forces
     atom    1 type  1   force =     0.00000000    0.00849940    0.06706533
     atom    2 type  1   force =     0.00000000   -0.00712152    0.00548930
     atom    3 type  1   force =     0.00000000   -0.01185178   -0.02155811
     atom    4 type  1   force =     0.00000000    0.04027382   -0.01611852
     atom    5 type  1   force =     0.00000000    0.02791780   -0.09747463
     atom    6 type  1   force =    -0.00000000    0.00712139   -0.00549230
     atom    7 type  1   force =    -0.00000000   -0.00849963   -0.06706835
     atom    8 type  1   force =    -0.00000001   -0.02791771    0.09747434
     atom    9 type  1   force =    -0.00000002   -0.04027378    0.01611541
     atom   10 type  1   force =    -0.00000000    0.01185195    0.02155507
     atom   11 type  1   force =    -0.00000000    0.00849938    0.06706536
     atom   12 type  1   force =    -0.00000000   -0.00712153    0.00548932
     atom   13 type  1   force =    -0.00000000   -0.01185178   -0.02155810
     atom   14 type  1   force =    -0.00000000    0.04027383   -0.01611845
     atom   15 type  1   force =    -0.00000000    0.02791780   -0.09747387
     atom   16 type  1   force =     0.00000000    0.00712139   -0.00549230
     atom   17 type  1   force =     0.00000000   -0.00849963   -0.06706835
     atom   18 type  1   force =     0.00000001   -0.02791771    0.09747434
     atom   19 type  1   force =     0.00000002   -0.04027378    0.01611541
     atom   20 type  1   force =     0.00000000    0.01185195    0.02155507

     Forces acting on atoms (cartesian axes, Ry/au):

     atom    1 type  1   force =     0.00000000    0.00027621   -0.00128140
     atom    2 type  1   force =     0.00000000    0.00013152   -0.00016881
     atom    3 type  1   force =     0.00000000    0.00029158    0.00110270
     atom    4 type  1   force =     0.00000000    0.00008235   -0.00092682
     atom    5 type  1   force =     0.00000000    0.00050238    0.00320000
     atom    6 type  1   force =    -0.00000002   -0.00013150    0.00016858
     atom    7 type  1   force =     0.00000000   -0.00027626    0.00128151
     atom    8 type  1   force =    -0.00000000   -0.00050221   -0.00319994
     atom    9 type  1   force =     0.00000000   -0.00008227    0.00092684
     atom   10 type  1   force =     0.00000001   -0.00029180   -0.00110265
     atom   11 type  1   force =     0.00000000    0.00027619   -0.00128138
     atom   12 type  1   force =     0.00000000    0.00013154   -0.00016881
     atom   13 type  1   force =     0.00000000    0.00029157    0.00110269
     atom   14 type  1   force =     0.00000000    0.00008235   -0.00092682
     atom   15 type  1   force =     0.00000000    0.00050238    0.00319998
     atom   16 type  1   force =     0.00000002   -0.00013150    0.00016858
     atom   17 type  1   force =    -0.00000000   -0.00027626    0.00128151
     atom   18 type  1   force =     0.00000000   -0.00050221   -0.00319994
     atom   19 type  1   force =    -0.00000000   -0.00008227    0.00092684
     atom   20 type  1   force =    -0.00000001   -0.00029180   -0.00110265
     The non-local contrib.  to forces
     atom    1 type  1   force =     0.00000000    0.00019184    0.05962007
     atom    2 type  1   force =     0.00000000    0.00725585   -0.00058776
     atom    3 type  1   force =     0.00000000    0.00017491    0.00057377
     atom    4 type  1   force =     0.00000000    0.02378483   -0.07378126
     atom    5 type  1   force =     0.00000000    0.01408133    0.05583859
     atom    6 type  1   force =    -0.00000002   -0.00725551    0.00058769
     atom    7 type  1   force =     0.00000001   -0.00019221   -0.05962002
     atom    8 type  1   force =    -0.00000002   -0.01408079   -0.05583756
     atom    9 type  1   force =    -0.00000003   -0.02378511    0.07378154
     atom   10 type  1   force =    -0.00000002   -0.00017498   -0.00057418
     atom   11 type  1   force =     0.00000000    0.00019186    0.05962014
     atom   12 type  1   force =     0.00000000    0.00725587   -0.00058776
     atom   13 type  1   force =     0.00000000    0.00017490    0.00057382
     atom   14 type  1   force =     0.00000000    0.02378488   -0.07378124
     atom   15 type  1   force =     0.00000000    0.01408141    0.05583895
     atom   16 type  1   force =     0.00000002   -0.00725551    0.00058769
     atom   17 type  1   force =    -0.00000001   -0.00019221   -0.05962002
     atom   18 type  1   force =     0.00000002   -0.01408079   -0.05583756
     atom   19 type  1   force =     0.00000003   -0.02378511    0.07378154
     atom   20 type  1   force =     0.00000002   -0.00017498   -0.00057418
     The ionic contribution  to forces
     atom    1 type  1   force =    -0.00000002   -0.00610627    4.44012812
     atom    2 type  1   force =    -0.00000002    0.03992123    1.33435896
     atom    3 type  1   force =    -0.00000003   -0.15068777   -3.01327677
     atom    4 type  1   force =    -0.00000001    0.31773072   -6.89391503
     atom    5 type  1   force =    -0.00000000    0.21438878    8.09025868
     atom    6 type  1   force =    -0.00000024   -0.03992955   -1.33434406
     atom    7 type  1   force =     0.00000013    0.00610690   -4.44012731
     atom    8 type  1   force =    -0.00000018   -0.21438078   -8.09025780
     atom    9 type  1   force =    -0.00000032   -0.31774168    6.89392378
     atom   10 type  1   force =    -0.00000040    0.15069847    3.01325198
     atom   11 type  1   force =     0.00000001   -0.00610619    4.44012955
     atom   12 type  1   force =     0.00000001    0.03992116    1.33436104
     atom   13 type  1   force =     0.00000002   -0.15068815   -3.01327650
     atom   14 type  1   force =     0.00000001    0.31773101   -6.89391653
     atom   15 type  1   force =     0.00000000    0.21438877    8.09025534
     atom   16 type  1   force =     0.00000025   -0.03992956   -1.33434408
     atom   17 type  1   force =    -0.00000012    0.00610691   -4.44012729
     atom   18 type  1   force =     0.00000018   -0.21438078   -8.09025777
     atom   19 type  1   force =     0.00000032   -0.31774168    6.89392376
     atom   20 type  1   force =     0.00000041    0.15069848    3.01325193
     The local contribution  to forces
     atom    1 type  1   force =     0.00000349   -0.00230873   -4.56809492
     atom    2 type  1   force =     0.00000348   -0.03992401   -1.33942931
     atom    3 type  1   force =     0.00000291    0.16265624    3.03536381
     atom    4 type  1   force =     0.00000408   -0.38170700    6.98288799
     atom    5 type  1   force =     0.00000408   -0.25588549   -8.04542264
     atom    6 type  1   force =     0.00000495    0.03993191    1.33941697
     atom    7 type  1   force =     0.00000429    0.00230870    4.56809749
     atom    8 type  1   force =     0.00000491    0.25587681    8.04542166
     atom    9 type  1   force =     0.00000450    0.38171833   -6.98289418
     atom   10 type  1   force =     0.00000485   -0.16266721   -3.03533611
     atom   11 type  1   force =     0.00000442   -0.00230883   -4.56809643
     atom   12 type  1   force =     0.00000440   -0.03992393   -1.33943142
     atom   13 type  1   force =     0.00000558    0.16265662    3.03536347
     atom   14 type  1   force =     0.00000500   -0.38170734    6.98288939
     atom   15 type  1   force =     0.00000384   -0.25588557   -8.04542044
     atom   16 type  1   force =     0.00000444    0.03993249    1.33941757
     atom   17 type  1   force =     0.00000455    0.00230870    4.56809688
     atom   18 type  1   force =     0.00000451    0.25587740    8.04542048
     atom   19 type  1   force =     0.00000375    0.38171833   -6.98289359
     atom   20 type  1   force =     0.00000398   -0.16266721   -3.03533490
     The core correction contribution to forces
     atom    1 type  1   force =     0.00000000    0.00000000    0.00000000
     atom    2 type  1   force =     0.00000000    0.00000000    0.00000000
     atom    3 type  1   force =     0.00000000    0.00000000    0.00000000
     atom    4 type  1   force =     0.00000000    0.00000000    0.00000000
     atom    5 type  1   force =     0.00000000    0.00000000    0.00000000
     atom    6 type  1   force =     0.00000000    0.00000000    0.00000000
     atom    7 type  1   force =     0.00000000    0.00000000    0.00000000
     atom    8 type  1   force =     0.00000000    0.00000000    0.00000000
     atom    9 type  1   force =     0.00000000    0.00000000    0.00000000
     atom   10 type  1   force =     0.00000000    0.00000000    0.00000000
     atom   11 type  1   force =     0.00000000    0.00000000    0.00000000
     atom   12 type  1   force =     0.00000000    0.00000000    0.00000000
     atom   13 type  1   force =     0.00000000    0.00000000    0.00000000
     atom   14 type  1   force =     0.00000000    0.00000000    0.00000000
     atom   15 type  1   force =     0.00000000    0.00000000    0.00000000
     atom   16 type  1   force =     0.00000000    0.00000000    0.00000000
     atom   17 type  1   force =     0.00000000    0.00000000    0.00000000
     atom   18 type  1   force =     0.00000000    0.00000000    0.00000000
     atom   19 type  1   force =     0.00000000    0.00000000    0.00000000
     atom   20 type  1   force =     0.00000000    0.00000000    0.00000000
     The Hubbard contrib.    to forces
     atom    1 type  1   force =     0.00000000    0.00000000    0.00000000
     atom    2 type  1   force =     0.00000000    0.00000000    0.00000000
     atom    3 type  1   force =     0.00000000    0.00000000    0.00000000
     atom    4 type  1   force =     0.00000000    0.00000000    0.00000000
     atom    5 type  1   force =     0.00000000    0.00000000    0.00000000
     atom    6 type  1   force =     0.00000000    0.00000000    0.00000000
     atom    7 type  1   force =     0.00000000    0.00000000    0.00000000
     atom    8 type  1   force =     0.00000000    0.00000000    0.00000000
     atom    9 type  1   force =     0.00000000    0.00000000    0.00000000
     atom   10 type  1   force =     0.00000000    0.00000000    0.00000000
     atom   11 type  1   force =     0.00000000    0.00000000    0.00000000
     atom   12 type  1   force =     0.00000000    0.00000000    0.00000000
     atom   13 type  1   force =     0.00000000    0.00000000    0.00000000
     atom   14 type  1   force =     0.00000000    0.00000000    0.00000000
     atom   15 type  1   force =     0.00000000    0.00000000    0.00000000
     atom   16 type  1   force =     0.00000000    0.00000000    0.00000000
     atom   17 type  1   force =     0.00000000    0.00000000    0.00000000
     atom   18 type  1   force =     0.00000000    0.00000000    0.00000000
     atom   19 type  1   force =     0.00000000    0.00000000    0.00000000
     atom   20 type  1   force =     0.00000000    0.00000000    0.00000000
     The SCF correction term to forces
     atom    1 type  1   force =     0.00000000   -0.00000000    0.00000000
     atom    2 type  1   force =    -0.00000000   -0.00000000    0.00000000
     atom    3 type  1   force =     0.00000000    0.00000000   -0.00000001
     atom    4 type  1   force =     0.00000000   -0.00000000   -0.00000000
     atom    5 type  1   force =     0.00000000   -0.00000000   -0.00000000
     atom    6 type  1   force =    -0.00000000    0.00000000   -0.00000001
     atom    7 type  1   force =    -0.00000000   -0.00000000   -0.00000000
     atom    8 type  1   force =    -0.00000000    0.00000000    0.00000000
     atom    9 type  1   force =     0.00000000    0.00000000    0.00000000
     atom   10 type  1   force =     0.00000000    0.00000000    0.00000001
     atom   11 type  1   force =    -0.00000000   -0.00000000    0.00000000
     atom   12 type  1   force =    -0.00000000   -0.00000000    0.00000000
     atom   13 type  1   force =    -0.00000000    0.00000000   -0.00000001
     atom   14 type  1   force =    -0.00000000   -0.00000000   -0.00000000
     atom   15 type  1   force =     0.00000000   -0.00000000   -0.00000000
     atom   16 type  1   force =     0.00000000    0.00000000   -0.00000001
     atom   17 type  1   force =     0.00000000   -0.00000000   -0.00000000
     atom   18 type  1   force =     0.00000000    0.00000000    0.00000000
     atom   19 type  1   force =    -0.00000000    0.00000000    0.00000000
     atom   20 type  1   force =    -0.00000000    0.00000000    0.00000001

     Total force =     0.007596     Total SCF correction =     0.000000

     Writing all to output data dir ./Li/Lithium.save/ :
     XML data file

     General routines

     Parallel routines

     PAW routines

     Environ routines

   This run was terminated on:  11:15:18  21Jan2025

   JOB DONE.