     Program PWSCF v.7.4 starts on  2Jan2025 at 10:45:25

     Reading input from espresso.pwi
Warning: card &CELL ignored
Warning: card    PRESS_CONV_THR   = 0.1 ignored
Warning: card    CELL_DOFREE      = 'ALL' ignored
Warning: card / ignored
Warning: card &FCP ignored
Warning: card / ignored
Warning: card &RISM ignored
Warning: card / ignored

     Current dimensions of program PWSCF are:
     Max number of different atomic species (ntypx) = 10
     Max number of k-points (npk) =  40000
     Max angular momentum in pseudopotentials (lmaxx) =  4

     IMPORTANT: XC functional enforced from input :
     Exchange-correlation= PBE
                           (   1   4   3   4   0   0   0)
     Any further DFT definition will be discarded
     Please, verify this is what you really want

     Reading input from environ.in:
     * using ionic solvent mode
     * setting boundary derivatives method to SSCS default
     * setting electrolyte-boundary derivatives method to SSCS default

Environ Warning (1001): card EOF ignored

     Found identity + (  0.5000  0.0000 -0.0000) symmetry
     This is a supercell, fractional translations are disabled

     K-points division:     npool     =       2
     R & G space division:  proc/nbgrp/npool/nimage =     192
     Subspace diagonalization in iterative solution of the eigenvalue problem:
     a serial algorithm will be used

     Using Slab Decomposition

     bravais-lattice index     =            8
     lattice parameter (alat)  =      12.9830  a.u.
     unit-cell volume          =   16814.9378 (a.u.)^3
     number of atoms/cell      =           20
     number of atomic types    =            1
     number of electrons       =        60.00
     number of Kohn-Sham states=           45
     kinetic-energy cutoff     =      80.0000  Ry
     charge density cutoff     =     800.0000  Ry
     scf convergence threshold =      1.0E-06
     mixing beta               =       0.2000
     number of iterations used =            8  local-TF  mixing
     energy convergence thresh.=      1.0E-05
     force convergence thresh. =      3.9E-04
     Exchange-correlation= PBE
                           (   1   4   3   4   0   0   0)
     nstep                     =          999

                                  Environ Setup Summary

          O. Andreussi, I. Dabo and N. Marzari, J. Chem. Phys. 136, 064102 (2012)
          F. Nattino, M. Truscott, N. Marzari, and O. Andreussi, J. Chem. Phys. 150, 041722 (2019)

     in publications or presentations arising from this work.

     Parameters

     compensation onset threshold      =               0.1000E+00
     static permittivity               =                    89.90
     surface tension in input (dyn/cm) =                    37.30
     surface tension in internal units =               0.4792E-04

     Solvent Boundary

     solvent mode                      =                    ionic
     derivatives method                =                   lowmem
     electrolyte derivatives method    =                   lowmem
     numerical core for derivatives    =                      fft
     switching function adopted        =                     SCCS
     density limit for vacuum region   =               0.5000E-02
     density limit for bulk solvent    =               0.1000E-03
     soft-sphere radius mode           =                    bondi
     soft-sphere softness              =                     0.50
     alpha                             =                     1.32

     Electrostatic Setup

     electrostatic problem to solve    =                    modpb
     numerical solver adopted          =                   newton
     type of auxiliary density adopted =                     none
     numerical core for poisson        =                      fft
     adopting a nested solver scheme
     inner solver                      =                       cg
     inner core                        =                      fft
     type of pbc corrections           =                parabolic
     numerical core for corrections    =                      1da

     >>>>> Grand-Canonical SCF is activated <<<<<
     Initial Total Charge  =     0.000000 e
     Target Fermi Energy   =    -2.904000 eV
     Thr. of Fermi Energy  =     0.001000 eV
     Wave-shift of Kerker  =     0.400000 bohr^-1
     Wave-shift of Hartree =     1.500000 bohr^-1
     Mixing Rate of Fermi  =     0.050000

     celldm(1)=  12.983009  celldm(2)=   1.118034  celldm(3)=   6.872491
     celldm(4)=   0.000000  celldm(5)=   0.000000  celldm(6)=   0.000000

     crystal axes: (cart. coord. in units of alat)
               a(1) = (   1.000000   0.000000   0.000000 )
               a(2) = (   0.000000   1.118034   0.000000 )
               a(3) = (   0.000000   0.000000   6.872491 )

     reciprocal axes: (cart. coord. in units 2 pi/alat)
               b(1) = (  1.000000  0.000000  0.000000 )
               b(2) = (  0.000000  0.894427  0.000000 )
               b(3) = (  0.000000  0.000000  0.145508 )

     PseudoPot. # 1 for Li read from file:
     /work/e89/e89/ba3g18/Repos/Pseudopotentials/Pslibrary/Li.pbe-sl-kjpaw_psl.1.0.0.UPF
     MD5 check sum: 3f4d2cafebb47c6c3aa8ed472e6f074d
     Pseudo is Projector augmented-wave, Zval =  3.0
     Generated using 'atomic' code by A. Dal Corso  v.7.4
     Shape of augmentation charge: PSQ
     Using radial grid of 1017 points,  4 beta functions with:
                l(1) =   0
                l(2) =   0
                l(3) =   1
                l(4) =   1
     Q(r) pseudized with 0 coefficients

     atomic species   valence    mass     pseudopotential
     Li                3.00     6.94000     Li( 1.00)

      2 Sym. Ops. (no inversion) found

                                    s                        frac. trans.

      isym =  1     identity

 cryst.   s( 1) = (     1          0          0      )
                  (     0          1          0      )
                  (     0          0          1      )

 cart.    s( 1) = (  1.0000000  0.0000000  0.0000000 )
                  (  0.0000000  1.0000000  0.0000000 )
                  (  0.0000000  0.0000000  1.0000000 )

      isym =  2     inv. 180 deg rotation - cart. axis [1,0,0]

 cryst.   s( 2) = (    -1          0          0      )
                  (     0          1          0      )
                  (     0          0          1      )

 cart.    s( 2) = ( -1.0000000  0.0000000  0.0000000 )
                  (  0.0000000  1.0000000  0.0000000 )
                  (  0.0000000  0.0000000  1.0000000 )

     point group C_s (m)
     there are  2 classes
     the character table:

       E     s
A'     1.00  1.00
A''    1.00 -1.00

     the symmetry operations in each class and the name of the first element:

     E        1
          identity
     s        2
          inv. 180 deg rotation - cart. axis [1,0,0]

   Cartesian axes

     site n.     atom                  positions (alat units)
         1        Li     tau(   1) = (  -0.0000000   0.4639580   3.7024679  )
         2        Li     tau(   2) = (  -0.0000000   0.8879446   3.5022693  )
         3        Li     tau(   3) = (  -0.0000000   0.2262136   3.2627459  )
         4        Li     tau(   4) = (  -0.0000000   0.6184584   3.0240172  )
         5        Li     tau(   5) = (  -0.0000000   0.1061957   3.9808207  )
         6        Li     tau(   6) = (   0.2499983   0.5655020   3.3702158  )
         7        Li     tau(   7) = (   0.2499990   0.9894853   3.1700224  )
         8        Li     tau(   8) = (   0.2499999   0.2292084   2.8916791  )
         9        Li     tau(   9) = (   0.2499995   0.8349868   3.8484666  )
        10        Li     tau(  10) = (   0.2499974   0.1091967   3.6097449  )
        11        Li     tau(  11) = (   0.5000000   0.4639599   3.7024644  )
        12        Li     tau(  12) = (   0.5000000   0.8879476   3.5022707  )
        13        Li     tau(  13) = (   0.5000000   0.2262134   3.2627482  )
        14        Li     tau(  14) = (   0.5000000   0.6184584   3.0240199  )
        15        Li     tau(  15) = (   0.5000000   0.1061970   3.9808129  )
        16        Li     tau(  16) = (   0.7500017   0.5655020   3.3702158  )
        17        Li     tau(  17) = (   0.7500010   0.9894853   3.1700224  )
        18        Li     tau(  18) = (   0.7500001   0.2292084   2.8916791  )
        19        Li     tau(  19) = (   0.7500004   0.8349868   3.8484666  )
        20        Li     tau(  20) = (   0.7500026   0.1091967   3.6097449  )

   Crystallographic axes

     site n.     atom                  positions (cryst. coord.)
         1        Li     tau(   1) = ( -0.0000000  0.4149767  0.5387374  )
         2        Li     tau(   2) = ( -0.0000000  0.7942018  0.5096070  )
         3        Li     tau(   3) = ( -0.0000000  0.2023316  0.4747545  )
         4        Li     tau(   4) = ( -0.0000000  0.5531660  0.4400176  )
         5        Li     tau(   5) = ( -0.0000000  0.0949843  0.5792399  )
         6        Li     tau(   6) = (  0.2499983  0.5058003  0.4903922  )
         7        Li     tau(   7) = (  0.2499990  0.8850226  0.4612625  )
         8        Li     tau(   8) = (  0.2499999  0.2050102  0.4207614  )
         9        Li     tau(   9) = (  0.2499995  0.7468349  0.5599813  )
        10        Li     tau(  10) = (  0.2499974  0.0976685  0.5252455  )
        11        Li     tau(  11) = (  0.5000000  0.4149784  0.5387369  )
        12        Li     tau(  12) = (  0.5000000  0.7942044  0.5096072  )
        13        Li     tau(  13) = (  0.5000000  0.2023314  0.4747548  )
        14        Li     tau(  14) = (  0.5000000  0.5531660  0.4400180  )
        15        Li     tau(  15) = (  0.5000000  0.0949855  0.5792387  )
        16        Li     tau(  16) = (  0.7500017  0.5058003  0.4903922  )
        17        Li     tau(  17) = (  0.7500010  0.8850226  0.4612625  )
        18        Li     tau(  18) = (  0.7500001  0.2050102  0.4207614  )
        19        Li     tau(  19) = (  0.7500004  0.7468349  0.5599813  )
        20        Li     tau(  20) = (  0.7500026  0.0976685  0.5252455  )

     number of k points=    30  Marzari-Vanderbilt smearing, width (Ry)=  0.0100
                       cart. coord. in units 2pi/alat
        k(    1) = (   0.0000000   0.0000000   0.0000000), wk =   0.0222222
        k(    2) = (   0.0000000   0.0993808   0.0000000), wk =   0.0444444
        k(    3) = (   0.0000000   0.1987616   0.0000000), wk =   0.0444444
        k(    4) = (   0.0000000   0.2981424   0.0000000), wk =   0.0444444
        k(    5) = (   0.0000000   0.3975232   0.0000000), wk =   0.0444444
        k(    6) = (   0.1000000   0.0000000   0.0000000), wk =   0.0444444
        k(    7) = (   0.1000000   0.0993808   0.0000000), wk =   0.0888889
        k(    8) = (   0.1000000   0.1987616   0.0000000), wk =   0.0888889
        k(    9) = (   0.1000000   0.2981424   0.0000000), wk =   0.0888889
        k(   10) = (   0.1000000   0.3975232   0.0000000), wk =   0.0888889
        k(   11) = (   0.2000000   0.0000000   0.0000000), wk =   0.0444444
        k(   12) = (   0.2000000   0.0993808   0.0000000), wk =   0.0888889
[...]
    -4.2821  -4.2821  -4.0157  -4.0157  -2.9858  -2.9858  -2.5503  -2.5503
    -1.8437  -1.8437  -1.5215  -1.5215  -1.3663  -1.3663  -1.1203  -1.1203
    -0.4298  -0.4298  -0.2576  -0.2576   0.2107

     occupation numbers
     1.0000   1.0000   1.0000   1.0000   1.0000   1.0000   1.0000   1.0000
     1.0000   1.0000   1.0000   1.0000   1.0000   1.0000   1.0000   1.0000
     1.0000   1.0000   1.0000   1.0000   1.0000   1.0000   1.0000   1.0000
     1.0000   1.0000   1.0000   1.0000   0.8349   0.8349   0.0000   0.0000
     0.0000   0.0000   0.0000   0.0000   0.0000   0.0000   0.0000   0.0000
     0.0000   0.0000   0.0000   0.0000   0.0000

     the Fermi energy is    -2.9040 ev

!    total energy              =    -300.64575065 Ry
     total all-electron energy =      -300.645913 Ry
     estimated scf accuracy    <          8.8E-13 Ry

!    total charge of GC-SCF    =       0.61149409 e
     smearing contrib. (-TS)   =       0.00006652 Ry
     internal energy E=F+TS    =    -300.64581717 Ry

     The total energy is F=E-TS. E is the sum of the following terms:
     one-electron contribution =   -2650.98887246 Ry
     hartree contribution      =    1292.09855037 Ry
     xc contribution           =     -71.23914881 Ry
     ewald contribution        =    1142.54092646 Ry
     one-center paw contrib.   =       1.76574922 Ry
      -> PAW hartree energy AE =       7.41517240 Ry
      -> PAW hartree energy PS =      -7.19239858 Ry
      -> PAW xc energy AE      =      -3.48252157 Ry
      -> PAW xc energy PS      =       3.34800430 Ry
      -> total E_H with PAW    =    1292.32132419 Ry
      -> total E_XC with PAW   =     -71.37366608 Ry
     pot.stat. contrib. (-muN) =      -0.13051734 Ry
     electrostatic embedding   =      -0.09387975 Ry
     cavitation energy         =       0.02242481 Ry
     electrolyte free energy   =      -0.00296019 Ry
     correction to one-el term =     -14.61808949 Ry

     WARNING: you are using the parabolic pbc correction;
              the potential shift above must be added to
              band and Fermi energies.

     convergence has been achieved in  20 iterations
     The dielectric solvent contribution to forces
     atom    1 type  1   force =     0.00000000    0.00226310   -0.00149684
     atom    2 type  1   force =     0.00000000    0.00056350    0.00496230
     atom    3 type  1   force =     0.00000000    0.00416853   -0.00559422
     atom    4 type  1   force =     0.00000000   -0.01140851   -0.01706995
     atom    5 type  1   force =     0.00000000   -0.01709653    0.02241322
     atom    6 type  1   force =     0.00000000   -0.00056352   -0.00496135
     atom    7 type  1   force =     0.00000000   -0.00226315    0.00149781
     atom    8 type  1   force =     0.00000004    0.01709654   -0.02241229
     atom    9 type  1   force =    -0.00000004    0.01140842    0.01707087
     atom   10 type  1   force =    -0.00000000   -0.00416855    0.00559518
     atom   11 type  1   force =    -0.00000000    0.00226309   -0.00149692
     atom   12 type  1   force =    -0.00000000    0.00056350    0.00496228
     atom   13 type  1   force =    -0.00000000    0.00416852   -0.00559421
     atom   14 type  1   force =    -0.00000000   -0.01140848   -0.01706990
     atom   15 type  1   force =    -0.00000000   -0.01709655    0.02241319
     atom   16 type  1   force =    -0.00000000   -0.00056352   -0.00496135
     atom   17 type  1   force =    -0.00000001   -0.00226315    0.00149782
     atom   18 type  1   force =    -0.00000004    0.01709654   -0.02241229
     atom   19 type  1   force =     0.00000004    0.01140842    0.01707087
     atom   20 type  1   force =     0.00000000   -0.00416855    0.00559518

     Forces acting on atoms (cartesian axes, Ry/au):

     atom    1 type  1   force =     0.00000000    0.00002522    0.00000206
     atom    2 type  1   force =     0.00000000   -0.00002893   -0.00002624
     atom    3 type  1   force =     0.00000000    0.00030042    0.00006950
     atom    4 type  1   force =     0.00000000    0.00027561    0.00012251
     atom    5 type  1   force =     0.00000000   -0.00010365    0.00000712
     atom    6 type  1   force =     0.00000001    0.00002872    0.00002601
     atom    7 type  1   force =     0.00000005   -0.00002488   -0.00000197
     atom    8 type  1   force =    -0.00000001    0.00010368   -0.00000696
     atom    9 type  1   force =    -0.00000003   -0.00027573   -0.00012244
     atom   10 type  1   force =     0.00000002   -0.00030047   -0.00006957
     atom   11 type  1   force =     0.00000000    0.00002523    0.00000214
     atom   12 type  1   force =     0.00000000   -0.00002895   -0.00002630
     atom   13 type  1   force =     0.00000000    0.00030039    0.00006942
     atom   14 type  1   force =     0.00000000    0.00027563    0.00012249
     atom   15 type  1   force =     0.00000000   -0.00010362    0.00000715
     atom   16 type  1   force =    -0.00000001    0.00002872    0.00002601
     atom   17 type  1   force =    -0.00000005   -0.00002488   -0.00000197
     atom   18 type  1   force =     0.00000001    0.00010368   -0.00000696
     atom   19 type  1   force =     0.00000003   -0.00027573   -0.00012244
     atom   20 type  1   force =    -0.00000002   -0.00030047   -0.00006957
     The non-local contrib.  to forces
     atom    1 type  1   force =     0.00000000    0.00248366    0.02802152
     atom    2 type  1   force =     0.00000000    0.00491773    0.00172181
     atom    3 type  1   force =     0.00000000    0.00353390   -0.00149235
     atom    4 type  1   force =     0.00000000    0.01927848   -0.06318224
     atom    5 type  1   force =     0.00000000    0.01232587    0.09016243
     atom    6 type  1   force =     0.00000004   -0.00491795   -0.00172178
     atom    7 type  1   force =     0.00000014   -0.00248311   -0.02802138
     atom    8 type  1   force =     0.00000011   -0.01232624   -0.09016186
     atom    9 type  1   force =    -0.00000009   -0.01927869    0.06318189
     atom   10 type  1   force =     0.00000007   -0.00353398    0.00149222
     atom   11 type  1   force =     0.00000000    0.00248364    0.02802134
     atom   12 type  1   force =     0.00000000    0.00491780    0.00172176
     atom   13 type  1   force =     0.00000000    0.00353373   -0.00149238
     atom   14 type  1   force =     0.00000000    0.01927851   -0.06318188
     atom   15 type  1   force =     0.00000000    0.01232607    0.09016214
     atom   16 type  1   force =    -0.00000004   -0.00491795   -0.00172178
     atom   17 type  1   force =    -0.00000014   -0.00248311   -0.02802138
     atom   18 type  1   force =    -0.00000011   -0.01232624   -0.09016186
     atom   19 type  1   force =     0.00000009   -0.01927869    0.06318189
     atom   20 type  1   force =    -0.00000007   -0.00353398    0.00149222
     The ionic contribution  to forces
     atom    1 type  1   force =    -0.00000002    0.09054093    4.94622493
     atom    2 type  1   force =    -0.00000002   -0.04479474    1.12502788
     atom    3 type  1   force =    -0.00000003   -0.09178350   -2.89658694
     atom    4 type  1   force =    -0.00000002    0.34463255   -6.93451391
     atom    5 type  1   force =    -0.00000001    0.19942712    8.11998224
     atom    6 type  1   force =     0.00000114    0.04479274   -1.12502597
     atom    7 type  1   force =     0.00000268   -0.09052732   -4.94623104
     atom    8 type  1   force =     0.00000107   -0.19942850   -8.11997029
     atom    9 type  1   force =    -0.00000014   -0.34464032    6.93450344
     atom   10 type  1   force =     0.00000131    0.09178101    2.89659268
     atom   11 type  1   force =     0.00000001    0.09054011    4.94621249
     atom   12 type  1   force =     0.00000001   -0.04479446    1.12502347
     atom   13 type  1   force =     0.00000002   -0.09178453   -2.89657978
     atom   14 type  1   force =     0.00000001    0.34463288   -6.93450354
     atom   15 type  1   force =     0.00000001    0.19942841    8.11997555
     atom   16 type  1   force =    -0.00000113    0.04479274   -1.12502599
     atom   17 type  1   force =    -0.00000268   -0.09052731   -4.94623101
     atom   18 type  1   force =    -0.00000106   -0.19942850   -8.11997026
     atom   19 type  1   force =     0.00000015   -0.34464033    6.93450341
     atom   20 type  1   force =    -0.00000131    0.09178102    2.89659263
     The local contribution  to forces
     atom    1 type  1   force =     0.00000349   -0.09526250   -4.97274340
     atom    2 type  1   force =     0.00000348    0.03928449   -1.13173805
     atom    3 type  1   force =     0.00000290    0.08438137    2.90374272
     atom    4 type  1   force =     0.00000407   -0.35222747    7.01488811
     atom    5 type  1   force =     0.00000408   -0.19476362   -8.23255246
     atom    6 type  1   force =     0.00000353   -0.03928280    1.13173481
     atom    7 type  1   force =     0.00000165    0.09524874    4.97274886
     atom    8 type  1   force =     0.00000349    0.19476477    8.23253948
     atom    9 type  1   force =     0.00000437    0.35223555   -7.01487852
     atom   10 type  1   force =     0.00000306   -0.08437886   -2.90374974
     atom   11 type  1   force =     0.00000442   -0.09526163   -4.97273062
     atom   12 type  1   force =     0.00000441    0.03928413   -1.13173362
     atom   13 type  1   force =     0.00000557    0.08438254    2.90373552
     atom   14 type  1   force =     0.00000500   -0.35222784    7.01487727
     atom   15 type  1   force =     0.00000384   -0.19476507   -8.23254541
     atom   16 type  1   force =     0.00000586   -0.03928222    1.13173541
     atom   17 type  1   force =     0.00000719    0.09524874    4.97274825
     atom   18 type  1   force =     0.00000593    0.19476536    8.23253830
     atom   19 type  1   force =     0.00000388    0.35223555   -7.01487792
     atom   20 type  1   force =     0.00000576   -0.08437886   -2.90374853
     The core correction contribution to forces
     atom    1 type  1   force =     0.00000000    0.00000000    0.00000000
     atom    2 type  1   force =     0.00000000    0.00000000    0.00000000
     atom    3 type  1   force =     0.00000000    0.00000000    0.00000000
     atom    4 type  1   force =     0.00000000    0.00000000    0.00000000
     atom    5 type  1   force =     0.00000000    0.00000000    0.00000000
     atom    6 type  1   force =     0.00000000    0.00000000    0.00000000
     atom    7 type  1   force =     0.00000000    0.00000000    0.00000000
     atom    8 type  1   force =     0.00000000    0.00000000    0.00000000
     atom    9 type  1   force =     0.00000000    0.00000000    0.00000000
     atom   10 type  1   force =     0.00000000    0.00000000    0.00000000
     atom   11 type  1   force =     0.00000000    0.00000000    0.00000000
     atom   12 type  1   force =     0.00000000    0.00000000    0.00000000
     atom   13 type  1   force =     0.00000000    0.00000000    0.00000000
     atom   14 type  1   force =     0.00000000    0.00000000    0.00000000
     atom   15 type  1   force =     0.00000000    0.00000000    0.00000000
     atom   16 type  1   force =     0.00000000    0.00000000    0.00000000
     atom   17 type  1   force =     0.00000000    0.00000000    0.00000000
     atom   18 type  1   force =     0.00000000    0.00000000    0.00000000
     atom   19 type  1   force =     0.00000000    0.00000000    0.00000000
     atom   20 type  1   force =     0.00000000    0.00000000    0.00000000
     The Hubbard contrib.    to forces
     atom    1 type  1   force =     0.00000000    0.00000000    0.00000000
     atom    2 type  1   force =     0.00000000    0.00000000    0.00000000
     atom    3 type  1   force =     0.00000000    0.00000000    0.00000000
     atom    4 type  1   force =     0.00000000    0.00000000    0.00000000
     atom    5 type  1   force =     0.00000000    0.00000000    0.00000000
     atom    6 type  1   force =     0.00000000    0.00000000    0.00000000
     atom    7 type  1   force =     0.00000000    0.00000000    0.00000000
     atom    8 type  1   force =     0.00000000    0.00000000    0.00000000
     atom    9 type  1   force =     0.00000000    0.00000000    0.00000000
     atom   10 type  1   force =     0.00000000    0.00000000    0.00000000
     atom   11 type  1   force =     0.00000000    0.00000000    0.00000000
     atom   12 type  1   force =     0.00000000    0.00000000    0.00000000
     atom   13 type  1   force =     0.00000000    0.00000000    0.00000000
     atom   14 type  1   force =     0.00000000    0.00000000    0.00000000
     atom   15 type  1   force =     0.00000000    0.00000000    0.00000000
     atom   16 type  1   force =     0.00000000    0.00000000    0.00000000
     atom   17 type  1   force =     0.00000000    0.00000000    0.00000000
     atom   18 type  1   force =     0.00000000    0.00000000    0.00000000
     atom   19 type  1   force =     0.00000000    0.00000000    0.00000000
     atom   20 type  1   force =     0.00000000    0.00000000    0.00000000
     The SCF correction term to forces
     atom    1 type  1   force =    -0.00000000    0.00000002   -0.00000403
     atom    2 type  1   force =     0.00000000    0.00000007   -0.00000008
     atom    3 type  1   force =     0.00000000    0.00000012    0.00000039
     atom    4 type  1   force =    -0.00000000    0.00000054    0.00000061
     atom    5 type  1   force =     0.00000000    0.00000351    0.00000179
     atom    6 type  1   force =     0.00000000   -0.00000005    0.00000012
     atom    7 type  1   force =    -0.00000000   -0.00000006    0.00000417
     atom    8 type  1   force =     0.00000000   -0.00000321   -0.00000132
     atom    9 type  1   force =    -0.00000000   -0.00000070   -0.00000029
     atom   10 type  1   force =     0.00000000   -0.00000011   -0.00000037
     atom   11 type  1   force =    -0.00000000    0.00000001   -0.00000404
     atom   12 type  1   force =    -0.00000000    0.00000007   -0.00000008
     atom   13 type  1   force =     0.00000000    0.00000012    0.00000039
     atom   14 type  1   force =     0.00000000    0.00000055    0.00000064
     atom   15 type  1   force =     0.00000000    0.00000351    0.00000179
     atom   16 type  1   force =    -0.00000000   -0.00000005    0.00000012
     atom   17 type  1   force =     0.00000000   -0.00000006    0.00000417
     atom   18 type  1   force =     0.00000000   -0.00000321   -0.00000132
     atom   19 type  1   force =     0.00000000   -0.00000070   -0.00000029
     atom   20 type  1   force =    -0.00000000   -0.00000011   -0.00000037

     Total force =     0.000892     Total SCF correction =     0.000011
     Energy error            =      5.3E-06 Ry
     Gradient error          =      3.0E-04 Ry/Bohr

     bfgs converged in  28 scf cycles and  27 bfgs steps
     (criteria: energy <  1.0E-05 Ry, force <  3.9E-04 Ry/Bohr)

     End of BFGS Geometry Optimization

     Final energy             =    -300.6457506493 Ry

     File ./Li/Lithium.bfgs deleted, as requested
Begin final coordinates

ATOMIC_POSITIONS (angstrom)
Li              -0.0000000600        3.2228420713       25.4642236465
Li              -0.0000000600        6.1303537121       24.0766737963
Li              -0.0000000500        1.5060896996       22.4381500695
Li              -0.0000000700        4.2737335103       20.7879092689
Li              -0.0000000700        0.6748548039       27.2085960168
Li               1.7175759820        3.8552643378       23.1394747046
Li               1.7175759630        6.7627641732       21.7519220831
Li               1.7175785948        1.6295195286       20.0075640375
Li               1.7175791367        5.7118851113       26.4282358938
Li               1.7175755860        0.7982819350       24.7780027221
Li               3.4351561700        3.2228420653       25.4642182875
Li               3.4351561700        6.1303553210       24.0766729466
Li               3.4351561500        1.5060893747       22.4381532927
Li               3.4351561600        4.2737332174       20.7879148274
Li               3.4351561800        0.6748557653       27.2085908286
Li               5.1527363480        3.8552643278       23.1394746946
Li               5.1527363770        6.7627641732       21.7519220931
Li               5.1527337352        1.6295195186       20.0075640574
Li               5.1527332133        5.7118851113       26.4282358838
Li               5.1527367540        0.7982819350       24.7780027021
End final coordinates

     Writing all to output data dir ./Li/Lithium.save/ :
     XML data file

     General routines

     Parallel routines

     PAW routines

     Environ routines

   This run was terminated on:  13: 2:18   2Jan2025

   JOB DONE.