     Program PWSCF v.7.4 starts on  6Jan2025 at 20:58:58
        Git branch: develop
        Last git commit: e877ff360aceba4b8d76ffc2fb1c70545fc5dd57
        Last git commit date: Sat Jan 4 12:56:15 2025 +0000
        Last git commit subject: Merge branch 'orthoU' into 'develop'

     Reading input from espresso.pwi
Warning: card &CELL ignored
Warning: card    PRESS_CONV_THR   = 0.1 ignored
Warning: card    CELL_DOFREE      = 'ALL' ignored
Warning: card / ignored
Warning: card &FCP ignored
Warning: card / ignored
Warning: card &RISM ignored
Warning: card / ignored

     Current dimensions of program PWSCF are:
     Max number of different atomic species (ntypx) = 10
     Max number of k-points (npk) =  40000
     Max angular momentum in pseudopotentials (lmaxx) =  4

     IMPORTANT: XC functional enforced from input :
     Exchange-correlation= PBE
                           (   1   4   3   4   0   0   0)
     Any further DFT definition will be discarded
     Please, verify this is what you really want

     Reading input from environ.in:
     * using ionic solvent mode
     * setting boundary derivatives method to SSCS default
     * setting electrolyte-boundary derivatives method to SSCS default

Environ Warning (1001): card EOF ignored

     K-points division:     npool     =       2
     R & G space division:  proc/nbgrp/npool/nimage =     180
     Subspace diagonalization in iterative solution of the eigenvalue problem:
     a serial algorithm will be used

     Using Slab Decomposition

     bravais-lattice index     =           12
     lattice parameter (alat)  =      18.3607  a.u.
     unit-cell volume          =   23801.8584 (a.u.)^3
     number of atoms/cell      =           36
     number of atomic types    =            1
     number of electrons       =       108.00
     number of Kohn-Sham states=           81
     kinetic-energy cutoff     =      80.0000  Ry
     charge density cutoff     =     800.0000  Ry
     scf convergence threshold =      1.0E-06
     mixing beta               =       0.2000
     number of iterations used =            8  local-TF  mixing
     energy convergence thresh.=      1.0E-05
     force convergence thresh. =      3.9E-04
     Exchange-correlation= PBE
                           (   1   4   3   4   0   0   0)
     nstep                     =          999

                                  Environ Setup Summary

          O. Andreussi, I. Dabo and N. Marzari, J. Chem. Phys. 136, 064102 (2012)
          F. Nattino, M. Truscott, N. Marzari, and O. Andreussi, J. Chem. Phys. 150, 041722 (2019)

     in publications or presentations arising from this work.

     Parameters

     compensation onset threshold      =               0.1000E+00
     static permittivity               =                    89.90
     surface tension in input (dyn/cm) =                    37.30
     surface tension in internal units =               0.4792E-04

     Solvent Boundary

     solvent mode                      =                    ionic
     derivatives method                =                   lowmem
     electrolyte derivatives method    =                   lowmem
     numerical core for derivatives    =                      fft
     switching function adopted        =                     SCCS
     density limit for vacuum region   =               0.5000E-02
     density limit for bulk solvent    =               0.1000E-03
     soft-sphere radius mode           =                    bondi
     soft-sphere softness              =                     0.50
     alpha                             =                     1.32

     Electrostatic Setup

     electrostatic problem to solve    =                    modpb
     numerical solver adopted          =                   newton
     type of auxiliary density adopted =                     none
     numerical core for poisson        =                      fft
     adopting a nested solver scheme
     inner solver                      =                       cg
     inner core                        =                      fft
     type of pbc corrections           =                parabolic
     numerical core for corrections    =                      1da

     >>>>> Grand-Canonical SCF is activated <<<<<
     Initial Total Charge  =     0.000000 e
     Target Fermi Energy   =    -4.404000 eV
     Thr. of Fermi Energy  =     0.001000 eV
     Wave-shift of Kerker  =     0.400000 bohr^-1
     Wave-shift of Hartree =     1.500000 bohr^-1
     Mixing Rate of Fermi  =     0.050000

     celldm(1)=  18.360747  celldm(2)=   0.790569  celldm(3)=   5.127180
     celldm(4)=   0.316228  celldm(5)=   0.000000  celldm(6)=   0.000000

     crystal axes: (cart. coord. in units of alat)
               a(1) = (   1.000000   0.000000   0.000000 )
               a(2) = (   0.250000   0.750000   0.000000 )
               a(3) = (   0.000000   0.000000   5.127180 )

     reciprocal axes: (cart. coord. in units 2 pi/alat)
               b(1) = (  1.000000 -0.333333  0.000000 )
               b(2) = (  0.000000  1.333333  0.000000 )
               b(3) = (  0.000000  0.000000  0.195039 )

     PseudoPot. # 1 for Li read from file:
     /home/mmm1182/Repos/Pseudopotentials/pslibrary/Li.pbe-sl-kjpaw_psl.1.0.0.UPF
     MD5 check sum: f40bb4162937df3f7c561f1969c76545
     Pseudo is Projector augmented-wave, Zval =  3.0
     Generated using 'atomic' code by A. Dal Corso  v.7.3.1
     Shape of augmentation charge: PSQ
     Using radial grid of 1017 points,  4 beta functions with:
                l(1) =   0
                l(2) =   0
                l(3) =   1
                l(4) =   1
     Q(r) pseudized with 0 coefficients

     atomic species   valence    mass     pseudopotential
     Li                3.00     6.94000     Li( 1.00)

     No symmetry found

                                    s                        frac. trans.

      isym =  1     identity

 cryst.   s( 1) = (     1          0          0      )
                  (     0          1          0      )
                  (     0          0          1      )

 cart.    s( 1) = (  1.0000000  0.0000000  0.0000000 )
                  (  0.0000000  1.0000000  0.0000000 )
                  (  0.0000000  0.0000000  1.0000000 )

     point group C_1 (1)
     there are  1 classes
     the character table:

       E
A      1.00

     the symmetry operations in each class and the name of the first element:

     E        1
          identity

   Cartesian axes

     site n.     atom                  positions (alat units)
         1        Li     tau(   1) = (   0.0000947  -0.1139119   3.1084605  )
         2        Li     tau(   2) = (   0.2499221   0.4096538   2.0855014  )
         3        Li     tau(   3) = (   0.2499780   0.0713589   2.3009091  )
         4        Li     tau(   4) = (   0.4999572   0.5038990   2.3181028  )
         5        Li     tau(   5) = (   0.4999822   0.1577992   2.4897153  )
         6        Li     tau(   6) = (   0.2500593   0.5988500   2.5527591  )
         7        Li     tau(   7) = (   0.2500545   0.2412443   2.7221068  )
         8        Li     tau(   8) = (   0.5000433   0.6708604   2.8626732  )
         9        Li     tau(   9) = (   0.5000454   0.3706013   2.9484969  )
        10        Li     tau(  10) = (   0.2499573   0.6624679   2.2645065  )
        11        Li     tau(  11) = (   0.2499447   0.3420899   2.4050828  )
        12        Li     tau(  12) = (   0.4999405   0.7344904   2.5744372  )
        13        Li     tau(  13) = (   0.5000165   0.4255402   2.6374773  )
        14        Li     tau(  14) = (   0.5000431   0.0794296   2.8090820  )
        15        Li     tau(  15) = (   0.2500225   0.5119715   2.8262674  )
        16        Li     tau(  16) = (   0.2500824   0.1736937   3.0416475  )
        17        Li     tau(  17) = (   0.4999330   0.6972378   2.0186951  )
        18        Li     tau(  18) = (   0.4999564   0.2127298   2.1786719  )
        19        Li     tau(  19) = (   0.5000647  -0.1139165   3.1084602  )
        20        Li     tau(  20) = (   0.7499176   0.4096510   2.0855087  )
        21        Li     tau(  21) = (   0.7499777   0.0713573   2.3009095  )
        22        Li     tau(  22) = (   0.9999551   0.5039005   2.3181040  )
        23        Li     tau(  23) = (   0.9999848   0.1577994   2.4897134  )
        24        Li     tau(  24) = (   0.7500598   0.5988517   2.5527583  )
        25        Li     tau(  25) = (   0.7500561   0.2412430   2.7221159  )
        26        Li     tau(  26) = (   1.0000427   0.6708602   2.8626779  )
        27        Li     tau(  27) = (   1.0000384   0.3705969   2.9484989  )
        28        Li     tau(  28) = (   0.7499569   0.6624665   2.2645082  )
        29        Li     tau(  29) = (   0.7499451   0.3420892   2.4050902  )
        30        Li     tau(  30) = (   0.9999403   0.7344938   2.5744405  )
        31        Li     tau(  31) = (   1.0000164   0.4255407   2.6374795  )
        32        Li     tau(  32) = (   1.0000447   0.0794279   2.8090818  )
        33        Li     tau(  33) = (   0.7500216   0.5119776   2.8262661  )
        34        Li     tau(  34) = (   0.7500779   0.1736879   3.0416591  )
        35        Li     tau(  35) = (   0.9999075   0.6972341   2.0186962  )
        36        Li     tau(  36) = (   0.9999598   0.2127332   2.1786713  )

   Crystallographic axes

     site n.     atom                  positions (cryst. coord.)
         1        Li     tau(   1) = (  0.0380654 -0.1518826  0.6062710  )
         2        Li     tau(   2) = (  0.1133709  0.5462051  0.4067541  )
         3        Li     tau(   3) = (  0.2261917  0.0951452  0.4487670  )
         4        Li     tau(   4) = (  0.3319908  0.6718654  0.4521204  )
         5        Li     tau(   5) = (  0.4473825  0.2103990  0.4855916  )
         6        Li     tau(   6) = (  0.0504426  0.7984667  0.4978875  )
         7        Li     tau(   7) = (  0.1696397  0.3216591  0.5309169  )
         8        Li     tau(   8) = (  0.2764232  0.8944806  0.5583329  )
         9        Li     tau(   9) = (  0.3765116  0.4941351  0.5750719  )
        10        Li     tau(  10) = (  0.0291347  0.8832906  0.4416671  )
        11        Li     tau(  11) = (  0.1359147  0.4561199  0.4690849  )
        12        Li     tau(  12) = (  0.2551104  0.9793205  0.5021156  )
        13        Li     tau(  13) = (  0.3581698  0.5673870  0.5144109  )
        14        Li     tau(  14) = (  0.4735666  0.1059061  0.5478805  )
        15        Li     tau(  15) = (  0.0793654  0.6826286  0.5512323  )
        16        Li     tau(  16) = (  0.1921845  0.2315916  0.5932398  )
        17        Li     tau(  17) = (  0.2675204  0.9296503  0.3937243  )
        18        Li     tau(  18) = (  0.4290465  0.2836398  0.4249260  )
        19        Li     tau(  19) = (  0.5380369 -0.1518887  0.6062709  )
        20        Li     tau(  20) = (  0.6133673  0.5462013  0.4067555  )
        21        Li     tau(  21) = (  0.7261919  0.0951431  0.4487671  )
        22        Li     tau(  22) = (  0.8319883  0.6718674  0.4521207  )
        23        Li     tau(  23) = (  0.9473849  0.2103992  0.4855912  )
[...]
     atom    6 type  1   force =    -0.00104128   -0.09094284   -0.26268952
     atom    7 type  1   force =     0.00004580    0.02321635    3.72838809
     atom    8 type  1   force =     0.00014181    0.04716675    7.07688457
     atom    9 type  1   force =    -0.00008698   -0.11350406    8.73410576
     atom   10 type  1   force =    -0.00020060   -0.04713355   -7.07701218
     atom   11 type  1   force =    -0.00010356   -0.02316890   -3.72864051
     atom   12 type  1   force =     0.00097320    0.09096756    0.26263316
     atom   13 type  1   force =     0.00040847   -0.17741348    1.62687109
     atom   14 type  1   force =    -0.00020383    0.16679962    5.75416008
     atom   15 type  1   force =    -0.00030300   -0.11700726    6.28189523
     atom   16 type  1   force =     0.00008884    0.09181766   10.30762432
     atom   17 type  1   force =    -0.00002721    0.02975963  -10.95574546
     atom   18 type  1   force =     0.00008322    0.11349871   -8.73414964
     atom   19 type  1   force =     0.00003251   -0.02976303   10.95574914
     atom   20 type  1   force =    -0.00008985   -0.09180365  -10.30763963
     atom   21 type  1   force =     0.00030209    0.11700110   -6.28184074
     atom   22 type  1   force =     0.00028721   -0.16680233   -5.75408722
     atom   23 type  1   force =    -0.00043954    0.17739441   -1.62696318
     atom   24 type  1   force =    -0.00096759   -0.09094984   -0.26266016
     atom   25 type  1   force =     0.00009913    0.02318762    3.72862989
     atom   26 type  1   force =     0.00021110    0.04711909    7.07704937
     atom   27 type  1   force =    -0.00003091   -0.11342856    8.73417103
     atom   28 type  1   force =    -0.00015408   -0.04715958   -7.07689222
     atom   29 type  1   force =    -0.00004182   -0.02323642   -3.72842252
     atom   30 type  1   force =     0.00103552    0.09094744    0.26274372
     atom   31 type  1   force =     0.00043796   -0.17739320    1.62696956
     atom   32 type  1   force =    -0.00027181    0.16679803    5.75409813
     atom   33 type  1   force =    -0.00016018   -0.11702296    6.28186357
     atom   34 type  1   force =     0.00015618    0.09171214   10.30776980
     atom   35 type  1   force =     0.00013394    0.02975664  -10.95572116
     atom   36 type  1   force =     0.00003458    0.11343442   -8.73419866
     The local contribution  to forces
     atom    1 type  1   force =     0.00015441    0.03125095  -10.98309507
     atom    2 type  1   force =     0.00019625    0.10183735   10.42071443
     atom    3 type  1   force =    -0.00019404   -0.12972590    6.33353768
     atom    4 type  1   force =    -0.00024357    0.17908153    5.81811078
     atom    5 type  1   force =     0.00046538   -0.19126804    1.63020438
     atom    6 type  1   force =     0.00109504    0.08756837    0.26220506
     atom    7 type  1   force =    -0.00006078   -0.02801678   -3.75755649
     atom    8 type  1   force =    -0.00020973   -0.04798286   -7.15707977
     atom    9 type  1   force =     0.00005552    0.12370817   -8.87955300
     atom   10 type  1   force =     0.00027165    0.04794337    7.15723049
     atom   11 type  1   force =     0.00012155    0.02796666    3.75780788
     atom   12 type  1   force =    -0.00102433   -0.08759361   -0.26214844
     atom   13 type  1   force =    -0.00046697    0.19127541   -1.63019730
     atom   14 type  1   force =     0.00025798   -0.17909361   -5.81810374
     atom   15 type  1   force =     0.00034577    0.12973971   -6.33357196
     atom   16 type  1   force =    -0.00012255   -0.10197524  -10.42060140
     atom   17 type  1   force =     0.00003500   -0.03124678   10.98312286
     atom   18 type  1   force =    -0.00005143   -0.12370188    8.87959525
     atom   19 type  1   force =    -0.00004105    0.03125110  -10.98312661
     atom   20 type  1   force =     0.00012340    0.10196049   10.42061482
     atom   21 type  1   force =    -0.00034440   -0.12973359    6.33351307
     atom   22 type  1   force =    -0.00034599    0.17909744    5.81802787
     atom   23 type  1   force =     0.00049979   -0.19125509    1.63028944
     atom   24 type  1   force =     0.00101913    0.08757640    0.26217235
     atom   25 type  1   force =    -0.00011698   -0.02798420   -3.75779948
     atom   26 type  1   force =    -0.00028225   -0.04792824   -7.15727170
     atom   27 type  1   force =    -0.00000882    0.12362205   -8.87962882
     atom   28 type  1   force =     0.00022208    0.04797466    7.15708605
     atom   29 type  1   force =     0.00005666    0.02803699    3.75758773
     atom   30 type  1   force =    -0.00108967   -0.08757308   -0.26226314
     atom   31 type  1   force =    -0.00049812    0.19125409   -1.63029847
     atom   32 type  1   force =     0.00033024   -0.17909294   -5.81804300
     atom   33 type  1   force =     0.00019138    0.12975293   -6.33353755
     atom   34 type  1   force =    -0.00019670   -0.10185168  -10.42073700
     atom   35 type  1   force =    -0.00014866   -0.03124384   10.98309815
     atom   36 type  1   force =     0.00000481   -0.12362879    8.87965383
     The core correction contribution to forces
     atom    1 type  1   force =     0.00000000    0.00000000    0.00000000
     atom    2 type  1   force =     0.00000000    0.00000000    0.00000000
     atom    3 type  1   force =     0.00000000    0.00000000    0.00000000
     atom    4 type  1   force =     0.00000000    0.00000000    0.00000000
     atom    5 type  1   force =     0.00000000    0.00000000    0.00000000
     atom    6 type  1   force =     0.00000000    0.00000000    0.00000000
     atom    7 type  1   force =     0.00000000    0.00000000    0.00000000
     atom    8 type  1   force =     0.00000000    0.00000000    0.00000000
     atom    9 type  1   force =     0.00000000    0.00000000    0.00000000
     atom   10 type  1   force =     0.00000000    0.00000000    0.00000000
     atom   11 type  1   force =     0.00000000    0.00000000    0.00000000
     atom   12 type  1   force =     0.00000000    0.00000000    0.00000000
     atom   13 type  1   force =     0.00000000    0.00000000    0.00000000
     atom   14 type  1   force =     0.00000000    0.00000000    0.00000000
     atom   15 type  1   force =     0.00000000    0.00000000    0.00000000
     atom   16 type  1   force =     0.00000000    0.00000000    0.00000000
     atom   17 type  1   force =     0.00000000    0.00000000    0.00000000
     atom   18 type  1   force =     0.00000000    0.00000000    0.00000000
     atom   19 type  1   force =     0.00000000    0.00000000    0.00000000
     atom   20 type  1   force =     0.00000000    0.00000000    0.00000000
     atom   21 type  1   force =     0.00000000    0.00000000    0.00000000
     atom   22 type  1   force =     0.00000000    0.00000000    0.00000000
     atom   23 type  1   force =     0.00000000    0.00000000    0.00000000
     atom   24 type  1   force =     0.00000000    0.00000000    0.00000000
     atom   25 type  1   force =     0.00000000    0.00000000    0.00000000
     atom   26 type  1   force =     0.00000000    0.00000000    0.00000000
     atom   27 type  1   force =     0.00000000    0.00000000    0.00000000
     atom   28 type  1   force =     0.00000000    0.00000000    0.00000000
     atom   29 type  1   force =     0.00000000    0.00000000    0.00000000
     atom   30 type  1   force =     0.00000000    0.00000000    0.00000000
     atom   31 type  1   force =     0.00000000    0.00000000    0.00000000
     atom   32 type  1   force =     0.00000000    0.00000000    0.00000000
     atom   33 type  1   force =     0.00000000    0.00000000    0.00000000
     atom   34 type  1   force =     0.00000000    0.00000000    0.00000000
     atom   35 type  1   force =     0.00000000    0.00000000    0.00000000
     atom   36 type  1   force =     0.00000000    0.00000000    0.00000000
     The Hubbard contrib.    to forces
     atom    1 type  1   force =     0.00000000    0.00000000    0.00000000
     atom    2 type  1   force =     0.00000000    0.00000000    0.00000000
     atom    3 type  1   force =     0.00000000    0.00000000    0.00000000
     atom    4 type  1   force =     0.00000000    0.00000000    0.00000000
     atom    5 type  1   force =     0.00000000    0.00000000    0.00000000
     atom    6 type  1   force =     0.00000000    0.00000000    0.00000000
     atom    7 type  1   force =     0.00000000    0.00000000    0.00000000
     atom    8 type  1   force =     0.00000000    0.00000000    0.00000000
     atom    9 type  1   force =     0.00000000    0.00000000    0.00000000
     atom   10 type  1   force =     0.00000000    0.00000000    0.00000000
     atom   11 type  1   force =     0.00000000    0.00000000    0.00000000
     atom   12 type  1   force =     0.00000000    0.00000000    0.00000000
     atom   13 type  1   force =     0.00000000    0.00000000    0.00000000
     atom   14 type  1   force =     0.00000000    0.00000000    0.00000000
     atom   15 type  1   force =     0.00000000    0.00000000    0.00000000
     atom   16 type  1   force =     0.00000000    0.00000000    0.00000000
     atom   17 type  1   force =     0.00000000    0.00000000    0.00000000
     atom   18 type  1   force =     0.00000000    0.00000000    0.00000000
     atom   19 type  1   force =     0.00000000    0.00000000    0.00000000
     atom   20 type  1   force =     0.00000000    0.00000000    0.00000000
     atom   21 type  1   force =     0.00000000    0.00000000    0.00000000
     atom   22 type  1   force =     0.00000000    0.00000000    0.00000000
     atom   23 type  1   force =     0.00000000    0.00000000    0.00000000
     atom   24 type  1   force =     0.00000000    0.00000000    0.00000000
     atom   25 type  1   force =     0.00000000    0.00000000    0.00000000
     atom   26 type  1   force =     0.00000000    0.00000000    0.00000000
     atom   27 type  1   force =     0.00000000    0.00000000    0.00000000
     atom   28 type  1   force =     0.00000000    0.00000000    0.00000000
     atom   29 type  1   force =     0.00000000    0.00000000    0.00000000
     atom   30 type  1   force =     0.00000000    0.00000000    0.00000000
     atom   31 type  1   force =     0.00000000    0.00000000    0.00000000
     atom   32 type  1   force =     0.00000000    0.00000000    0.00000000
     atom   33 type  1   force =     0.00000000    0.00000000    0.00000000
     atom   34 type  1   force =     0.00000000    0.00000000    0.00000000
     atom   35 type  1   force =     0.00000000    0.00000000    0.00000000
     atom   36 type  1   force =     0.00000000    0.00000000    0.00000000
     The SCF correction term to forces
     atom    1 type  1   force =    -0.00000013    0.00001269    0.00000289
     atom    2 type  1   force =     0.00000001    0.00000351    0.00000095
     atom    3 type  1   force =     0.00000001   -0.00000005   -0.00000347
     atom    4 type  1   force =    -0.00000001   -0.00000000   -0.00000839
     atom    5 type  1   force =    -0.00000002    0.00000004   -0.00000012
     atom    6 type  1   force =     0.00000000   -0.00000008    0.00000005
     atom    7 type  1   force =    -0.00000001   -0.00000009    0.00000133
     atom    8 type  1   force =     0.00000001   -0.00000042    0.00000619
     atom    9 type  1   force =     0.00000000    0.00000059    0.00000080
     atom   10 type  1   force =    -0.00000004    0.00000043   -0.00000625
     atom   11 type  1   force =    -0.00000002    0.00000014   -0.00000142
     atom   12 type  1   force =    -0.00000002    0.00000003   -0.00000017
     atom   13 type  1   force =    -0.00000001   -0.00000000   -0.00000001
     atom   14 type  1   force =    -0.00000003    0.00000001    0.00000836
     atom   15 type  1   force =    -0.00000001    0.00000004    0.00000342
     atom   16 type  1   force =    -0.00000002   -0.00000355   -0.00000092
     atom   17 type  1   force =     0.00000012   -0.00001267   -0.00000286
     atom   18 type  1   force =    -0.00000002   -0.00000056   -0.00000081
     atom   19 type  1   force =    -0.00000013    0.00001268    0.00000293
     atom   20 type  1   force =     0.00000002    0.00000353    0.00000098
     atom   21 type  1   force =     0.00000002   -0.00000007   -0.00000352
     atom   22 type  1   force =     0.00000003   -0.00000001   -0.00000840
     atom   23 type  1   force =     0.00000000    0.00000003   -0.00000011
     atom   24 type  1   force =    -0.00000000   -0.00000008    0.00000004
     atom   25 type  1   force =     0.00000003   -0.00000009    0.00000134
     atom   26 type  1   force =     0.00000006   -0.00000047    0.00000624
     atom   27 type  1   force =     0.00000003    0.00000060    0.00000083
     atom   28 type  1   force =    -0.00000002    0.00000041   -0.00000620
     atom   29 type  1   force =     0.00000001    0.00000013   -0.00000141
     atom   30 type  1   force =     0.00000002    0.00000002   -0.00000017
     atom   31 type  1   force =     0.00000003   -0.00000002   -0.00000002
     atom   32 type  1   force =     0.00000000    0.00000000    0.00000839
     atom   33 type  1   force =    -0.00000002    0.00000003    0.00000340
     atom   34 type  1   force =    -0.00000002   -0.00000351   -0.00000090
     atom   35 type  1   force =     0.00000015   -0.00001269   -0.00000286
     atom   36 type  1   force =    -0.00000001   -0.00000058   -0.00000082

     Total force =     0.001513     Total SCF correction =     0.000035
     Energy error            =      9.8E-06 Ry
     Gradient error          =      3.6E-04 Ry/Bohr

     bfgs converged in  33 scf cycles and  32 bfgs steps
     (criteria: energy <  1.0E-05 Ry, force <  3.9E-04 Ry/Bohr)

     End of BFGS Geometry Optimization

     Final energy             =    -541.5497720718 Ry

     File ./Li/Lithium.bfgs deleted, as requested
Begin final coordinates

ATOMIC_POSITIONS (angstrom)
Li               0.0010206129       -1.1888160958       30.3901201008
Li               2.4286850060        3.9479785928       20.1719816562
Li               2.4282839117        0.6708193856       22.3314129934
Li               4.8575251463        4.8926553670       22.5412519083
Li               4.8579823452        1.5288219316       24.2053397999
Li               2.4296279110        5.8052561334       24.8085075714
Li               2.4293465270        2.3624742400       26.4646648293
Li               4.8587502438        6.5389205252       27.8116451776
Li               4.8587916377        3.5694394388       28.5806479362
Li               2.4283160428        6.4158651291       22.0044586895
Li               2.4287090849        3.3052567090       23.3513532386
Li               4.8574356657        7.1494745692       25.0076104512
Li               4.8581053455        4.1388898452       25.6107831395
Li               4.8585704941        0.7750742118       27.2748740961
Li               2.4297775565        4.9968939041       27.4847148866
Li               2.4294404772        1.7197141252       29.6440453540
Li               4.8573232470        6.8565528553       19.4260262627
Li               4.8573187522        2.0982824333       21.2354584532
Li               4.8587429488       -1.1888633788       30.3901255022
Li               7.2866535740        3.9480021402       20.1720832599
Li               7.2863107497        0.6708301820       22.3314257323
Li               9.7155230429        4.8926771372       22.5412884260
Li               9.7160495760        1.5288263481       24.2053130828
Li               7.2876759092        5.8052814811       24.8085093010
Li               7.2873817975        2.3624693240       26.4647661740
Li               9.7167976693        6.5389374795       27.8116783626
Li               9.7167593488        3.5693758234       28.5806655192
Li               7.2863596550        6.4158801965       22.0044818049
Li               7.2867411014        3.3052572689       23.3514469088
Li               9.7154838386        7.1495200178       25.0076562430
Li               9.7161299743        4.1388825065       25.6108213278
Li               9.7166478845        0.7750537276       27.2748413782
Li               7.2878048299        4.9969575353       27.4847132748
Li               7.2873993371        1.7197120552       29.6441799089
Li               9.7150912158        6.8565156767       19.4260465961
Li               9.7153968946        2.0983353864       21.2354446102
End final coordinates

     Writing all to output data dir ./Li/Lithium.save/ :
     XML data file

     General routines

     Parallel routines

     PAW routines

     Environ routines

   This run was terminated on:   2:59:35   7Jan2025

   JOB DONE.