     Program PWSCF v.7.4 starts on 23Jan2025 at  0:35:55

     Reading input from espresso.pwi
Warning: card &CELL ignored
Warning: card    PRESS_CONV_THR   = 0.1 ignored
Warning: card    CELL_DOFREE      = 'ALL' ignored
Warning: card / ignored
Warning: card &FCP ignored
Warning: card / ignored
Warning: card &RISM ignored
Warning: card / ignored

     Current dimensions of program PWSCF are:
     Max number of different atomic species (ntypx) = 10
     Max number of k-points (npk) =  40000
     Max angular momentum in pseudopotentials (lmaxx) =  4

     IMPORTANT: XC functional enforced from input :
     Exchange-correlation= PBE
                           (   1   4   3   4   0   0   0)
     Any further DFT definition will be discarded
     Please, verify this is what you really want

     Found identity + ( -0.5000 -0.0000 -0.0000) symmetry
     This is a supercell, fractional translations are disabled

     K-points division:     npool     =       3
     R & G space division:  proc/nbgrp/npool/nimage =     128
     Subspace diagonalization in iterative solution of the eigenvalue problem:
     a serial algorithm will be used

     Using Slab Decomposition

     bravais-lattice index     =            0
     lattice parameter (alat)  =      18.3607  a.u.
     unit-cell volume          =   14771.6796 (a.u.)^3
     number of atoms/cell      =           36
     number of atomic types    =            1
     number of electrons       =       108.00
     number of Kohn-Sham states=           81
     kinetic-energy cutoff     =      80.0000  Ry
     charge density cutoff     =     800.0000  Ry
     scf convergence threshold =      1.0E-06
     mixing beta               =       0.2000
     number of iterations used =            8  local-TF  mixing
     energy convergence thresh.=      1.0E-05
     force convergence thresh. =      3.9E-04
     Exchange-correlation= PBE
                           (   1   4   3   4   0   0   0)
     nstep                     =           50

     celldm(1)=  18.360747  celldm(2)=   0.000000  celldm(3)=   0.000000
     celldm(4)=   0.000000  celldm(5)=   0.000000  celldm(6)=   0.000000

     crystal axes: (cart. coord. in units of alat)
               a(1) = (   1.000000   0.000000   0.000000 )
               a(2) = (   0.250000   0.750000   0.000000 )
               a(3) = (   0.000000   0.000000   3.181981 )

     reciprocal axes: (cart. coord. in units 2 pi/alat)
               b(1) = (  1.000000 -0.333333  0.000000 )
               b(2) = (  0.000000  1.333333  0.000000 )
               b(3) = (  0.000000  0.000000  0.314270 )

     PseudoPot. # 1 for Li read from file:
     /iridisfs/home/ba3g18/Repos/Pseudopotentials/pslibrary.1.0.0/pbe/PSEUDOPOTENTIALS/Li.pbe-sl-kjpaw_psl.1.0.0.UPF
     MD5 check sum: 3f4d2cafebb47c6c3aa8ed472e6f074d
     Pseudo is Projector augmented-wave, Zval =  3.0
     Generated using 'atomic' code by A. Dal Corso  v.7.4
     Shape of augmentation charge: PSQ
     Using radial grid of 1017 points,  4 beta functions with:
                l(1) =   0
                l(2) =   0
                l(3) =   1
                l(4) =   1
     Q(r) pseudized with 0 coefficients

     atomic species   valence    mass     pseudopotential
     Li                3.00     6.94000     Li( 1.00)

     No symmetry found

   Cartesian axes

     site n.     atom                  positions (alat units)
         1        Li     tau(   1) = (   0.0007738  -0.0574448   2.0886995  )
         2        Li     tau(   2) = (   0.2491748   0.4166427   1.1536302  )
         3        Li     tau(   3) = (   0.2493397   0.0973398   1.3113046  )
         4        Li     tau(   4) = (   0.4997057   0.4990254   1.3615091  )
         5        Li     tau(   5) = (   0.4998473   0.1641436   1.5088561  )
         6        Li     tau(   6) = (   0.2499849   0.5989042   1.6047894  )
         7        Li     tau(   7) = (   0.2501781   0.2345348   1.7302124  )
         8        Li     tau(   8) = (   0.5005521   0.6599194   1.8728340  )
         9        Li     tau(   9) = (   0.5006536   0.3535442   1.9854169  )
        10        Li     tau(  10) = (   0.2494482   0.6734139   1.3091468  )
        11        Li     tau(  11) = (   0.2498217   0.3487987   1.4517696  )
        12        Li     tau(  12) = (   0.5000156   0.7344299   1.5771914  )
        13        Li     tau(  13) = (   0.5001528   0.4191902   1.6731238  )
        14        Li     tau(  14) = (   0.5002939   0.0843072   1.8204709  )
        15        Li     tau(  15) = (   0.2506602   0.4859940   1.8706761  )
        16        Li     tau(  16) = (   0.2508257   0.1666896   2.0283515  )
        17        Li     tau(  17) = (   0.4992244   0.6407788   1.0932809  )
        18        Li     tau(  18) = (   0.4993455   0.2297865   1.1965622  )
        19        Li     tau(  19) = (   0.5007788  -0.0574449   2.0886991  )
        20        Li     tau(  20) = (   0.7491726   0.4166425   1.1536296  )
        21        Li     tau(  21) = (   0.7493398   0.0973396   1.3113038  )
        22        Li     tau(  22) = (   0.9997062   0.4990265   1.3615096  )
        23        Li     tau(  23) = (   0.9998470   0.1641433   1.5088567  )
        24        Li     tau(  24) = (   0.7499848   0.5989033   1.6047897  )
        25        Li     tau(  25) = (   0.7501776   0.2345347   1.7302108  )
        26        Li     tau(  26) = (   1.0005517   0.6599201   1.8728327  )
        27        Li     tau(  27) = (   1.0006551   0.3535463   1.9854183  )
        28        Li     tau(  28) = (   0.7494479   0.6734132   1.3091474  )
        29        Li     tau(  29) = (   0.7498226   0.3487987   1.4517683  )
        30        Li     tau(  30) = (   1.0000150   0.7344297   1.5771907  )
        31        Li     tau(  31) = (   1.0001531   0.4191900   1.6731242  )
        32        Li     tau(  32) = (   1.0002941   0.0843079   1.8204715  )
        33        Li     tau(  33) = (   0.7506603   0.4859928   1.8706765  )
        34        Li     tau(  34) = (   0.7508268   0.1666915   2.0283499  )
        35        Li     tau(  35) = (   0.9992229   0.6407770   1.0932810  )
        36        Li     tau(  36) = (   0.9993457   0.2297897   1.1965640  )

     number of k points=    32  Marzari-Vanderbilt smearing, width (Ry)=  0.0100
                       cart. coord. in units 2pi/alat
        k(    1) = (   0.0000000   0.0000000   0.0000000), wk =   0.0317460
        k(    2) = (   0.0000000   0.1481481   0.0000000), wk =   0.0634921
        k(    3) = (   0.0000000   0.2962963   0.0000000), wk =   0.0634921
        k(    4) = (   0.0000000   0.4444444   0.0000000), wk =   0.0634921
        k(    5) = (   0.0000000   0.5925926   0.0000000), wk =   0.0634921
        k(    6) = (   0.1428571  -0.0476190   0.0000000), wk =   0.0634921
        k(    7) = (   0.1428571   0.1005291   0.0000000), wk =   0.0634921
        k(    8) = (   0.1428571   0.2486772   0.0000000), wk =   0.0634921
        k(    9) = (   0.1428571   0.3968254   0.0000000), wk =   0.0634921
        k(   10) = (   0.1428571   0.5449735   0.0000000), wk =   0.0634921
        k(   11) = (   0.1428571  -0.6402116   0.0000000), wk =   0.0634921
        k(   12) = (   0.1428571  -0.4920635   0.0000000), wk =   0.0634921
        k(   13) = (   0.1428571  -0.3439153   0.0000000), wk =   0.0634921
        k(   14) = (   0.1428571  -0.1957672   0.0000000), wk =   0.0634921
        k(   15) = (   0.2857143  -0.0952381   0.0000000), wk =   0.0634921
        k(   16) = (   0.2857143   0.0529101   0.0000000), wk =   0.0634921
        k(   17) = (   0.2857143   0.2010582   0.0000000), wk =   0.0634921
        k(   18) = (   0.2857143   0.3492063   0.0000000), wk =   0.0634921
        k(   19) = (   0.2857143   0.4973545   0.0000000), wk =   0.0634921
        k(   20) = (   0.2857143  -0.6878307   0.0000000), wk =   0.0634921
        k(   21) = (   0.2857143  -0.5396825   0.0000000), wk =   0.0634921
        k(   22) = (   0.2857143  -0.3915344   0.0000000), wk =   0.0634921
        k(   23) = (   0.2857143  -0.2433862   0.0000000), wk =   0.0634921
        k(   24) = (   0.4285714  -0.1428571   0.0000000), wk =   0.0634921
        k(   25) = (   0.4285714   0.0052910   0.0000000), wk =   0.0634921
        k(   26) = (   0.4285714   0.1534392   0.0000000), wk =   0.0634921
        k(   27) = (   0.4285714   0.3015873   0.0000000), wk =   0.0634921
        k(   28) = (   0.4285714   0.4497354   0.0000000), wk =   0.0634921
        k(   29) = (   0.4285714  -0.7354497   0.0000000), wk =   0.0634921
        k(   30) = (   0.4285714  -0.5873016   0.0000000), wk =   0.0634921
        k(   31) = (   0.4285714  -0.4391534   0.0000000), wk =   0.0634921
        k(   32) = (   0.4285714  -0.2910053   0.0000000), wk =   0.0634921

     Initial potential from superposition of free atoms

     starting charge     107.8341, renormalised to     108.0000

     negative rho (up, down):  2.332E-03 0.000E+00
     Starting wfcs are  180 randomized atomic wfcs
     Checking if some PAW data can be deallocated...

     Self-consistent Calculation

     iteration #  1     ecut=    80.00 Ry     beta= 0.20
     Davidson diagonalization with overlap
     ethr =  1.00E-02,  avg # of iterations =  3.8

     negative rho (up, down):  9.278E-05 0.000E+00

     total energy              =    -541.51717348 Ry
     estimated scf accuracy    <       4.30588244 Ry

[...]

     iteration #  6     ecut=    80.00 Ry     beta= 0.20
     Davidson diagonalization with overlap
     c_bands:  1 eigenvalues not converged
     ethr =  8.23E-05,  avg # of iterations =  8.7

[...]

     iteration # 19     ecut=    80.00 Ry     beta= 0.20
     Davidson diagonalization with overlap
     c_bands:  1 eigenvalues not converged
     c_bands:  1 eigenvalues not converged
     c_bands:  1 eigenvalues not converged
     ethr =  3.25E-09,  avg # of iterations = 14.8

[...]

     total energy              =    -541.24984118 Ry
     estimated scf accuracy    <       0.00000183 Ry

     iteration # 20     ecut=    80.00 Ry     beta= 0.20
     Davidson diagonalization with overlap
     ethr =  1.69E-09,  avg # of iterations =  6.9

     negative rho (up, down):  2.065E-04 0.000E+00

     End of self-consistent calculation

          k = 0.0000 0.0000 0.0000 (178567 PWs)   bands (ev):

   -49.1520 -49.1520 -49.1520 -49.1520 -48.7168 -48.7168 -48.7167 -48.7166
   -48.6417 -48.6417 -48.6416 -48.6416 -48.1074 -48.1070 -48.1070 -48.1068
   -48.0783 -48.0778 -48.0733 -48.0732 -48.0598 -48.0514 -48.0512 -48.0430
   -48.0303 -48.0302 -48.0302 -48.0301 -47.9964 -47.9962 -47.9957 -47.9957
   -47.9838 -47.9835 -47.9794 -47.9792  -4.9163  -4.3609  -3.5982  -3.5955
    -3.4554  -3.0270  -3.0263  -2.7992  -2.7987  -2.5642  -2.5482  -2.4056
    -2.2630  -2.1590  -2.1513  -2.1420  -1.9714  -1.9170  -1.3848  -1.3630
    -1.3385  -1.1004  -1.0741  -1.0589  -1.0040  -0.8746  -0.6216  -0.4119
    -0.4117  -0.3386  -0.2263  -0.1826   0.0723   0.2737   0.3025   0.3288
     0.3591   0.6599   0.6809   0.8446   1.0392   1.0720   1.1390   1.4331
     1.4701

[...]

          k = 0.4286-0.2910 0.0000 (178585 PWs)   bands (ev):

   -49.1520 -49.1520 -49.1520 -49.1520 -48.7168 -48.7167 -48.7167 -48.7167
   -48.6417 -48.6417 -48.6416 -48.6416 -48.1072 -48.1072 -48.1069 -48.1069
   -48.0781 -48.0780 -48.0734 -48.0732 -48.0579 -48.0566 -48.0461 -48.0448
   -48.0302 -48.0302 -48.0302 -48.0302 -47.9961 -47.9960 -47.9960 -47.9959
   -47.9837 -47.9836 -47.9793 -47.9793  -4.5978  -4.5262  -4.0395  -3.9648
    -3.4079  -3.1432  -3.0495  -2.8150  -2.5680  -2.3149  -2.1145  -2.0602
    -2.0144  -1.9570  -1.8984  -1.8898  -1.8764  -1.7276  -1.5842  -1.4911
    -1.3615  -1.2713  -1.1606  -1.0903  -0.9834  -0.9490  -0.8854  -0.8310
    -0.6671  -0.5524  -0.5251  -0.4939  -0.3655  -0.1099   0.0781   0.0851
     0.5144   0.6466   0.8490   0.9917   1.0982   1.1656   1.2867   1.4081
     1.5165

     the Fermi energy is    -1.5168 ev

!    total energy              =    -541.24984233 Ry
     total all-electron energy =      -541.250135 Ry
     estimated scf accuracy    <       0.00000048 Ry
     smearing contrib. (-TS)   =      -0.00180618 Ry
     internal energy E=F+TS    =    -541.24803616 Ry

     The total energy is F=E-TS. E is the sum of the following terms:
     one-electron contribution =   -2896.53078395 Ry
     hartree contribution      =    1394.23092870 Ry
     xc contribution           =    -128.90106427 Ry
     ewald contribution        =    1086.77832512 Ry
     one-center paw contrib.   =       3.17455824 Ry

     convergence has been achieved in  20 iterations

     Forces acting on atoms (cartesian axes, Ry/au):

     atom    1 type  1   force =    -0.00002036   -0.00026295   -0.00012206
     atom    2 type  1   force =     0.00006847   -0.00012905    0.00030337
     atom    3 type  1   force =     0.00006050   -0.00003365   -0.00011173
     atom    4 type  1   force =    -0.00005597   -0.00001334    0.00033591
     atom    5 type  1   force =    -0.00002829   -0.00006355   -0.00003815
     atom    6 type  1   force =     0.00002513   -0.00000255    0.00000672
     atom    7 type  1   force =     0.00001174    0.00003733   -0.00008714
     atom    8 type  1   force =     0.00001275   -0.00013760   -0.00019908
     atom    9 type  1   force =     0.00004247    0.00025540   -0.00019070
     atom   10 type  1   force =    -0.00001300    0.00013918    0.00019883
     atom   11 type  1   force =    -0.00001178   -0.00003889    0.00008867
     atom   12 type  1   force =    -0.00002580    0.00000236   -0.00000726
     atom   13 type  1   force =     0.00002995    0.00006443    0.00003796
     atom   14 type  1   force =     0.00005400    0.00001412   -0.00033554
     atom   15 type  1   force =    -0.00005919    0.00003463    0.00011350
     atom   16 type  1   force =    -0.00006683    0.00012949   -0.00030379
     atom   17 type  1   force =     0.00001991    0.00026193    0.00012179
     atom   18 type  1   force =    -0.00004252   -0.00025431    0.00018799
     atom   19 type  1   force =    -0.00002232   -0.00026280   -0.00012316
     atom   20 type  1   force =     0.00006596   -0.00013020    0.00030352
     atom   21 type  1   force =     0.00006150   -0.00003419   -0.00011539
     atom   22 type  1   force =    -0.00005473   -0.00001335    0.00033639
     atom   23 type  1   force =    -0.00002940   -0.00006450   -0.00003781
     atom   24 type  1   force =     0.00002522   -0.00000258    0.00000642
     atom   25 type  1   force =     0.00001315    0.00003858   -0.00008779
     atom   26 type  1   force =     0.00001278   -0.00013786   -0.00019879
     atom   27 type  1   force =     0.00004284    0.00025541   -0.00018907
     atom   28 type  1   force =    -0.00001253    0.00013652    0.00020002
     atom   29 type  1   force =    -0.00001189   -0.00003862    0.00008927
     atom   30 type  1   force =    -0.00002524    0.00000327   -0.00000688
     atom   31 type  1   force =     0.00002982    0.00006352    0.00003759
     atom   32 type  1   force =     0.00005521    0.00001316   -0.00033554
     atom   33 type  1   force =    -0.00006210    0.00003268    0.00011270
     atom   34 type  1   force =    -0.00006820    0.00013097   -0.00030374
     atom   35 type  1   force =     0.00002107    0.00026208    0.00012324
     atom   36 type  1   force =    -0.00004235   -0.00025508    0.00018974

     Total force =     0.001428     Total SCF correction =     0.000424
     SCF correction compared to forces is large: reduce conv_thr to get better values

     BFGS Geometry Optimization
     Energy error            =      2.0E-06 Ry
     Gradient error          =      3.4E-04 Ry/Bohr

     bfgs converged in   1 scf cycles and   0 bfgs steps
     (criteria: energy <  1.0E-05 Ry, force <  3.9E-04 Ry/Bohr)

     End of BFGS Geometry Optimization

     Final energy             =    -541.2498423338 Ry
Begin final coordinates

ATOMIC_POSITIONS (angstrom)
Li               0.0075186100       -0.5581392500       20.2939896300
Li               2.4210042200        4.0481375200       11.2087735300
Li               2.4226062600        0.9457621300       12.7407519900
Li               4.8551853900        4.8485755600       13.2285434600
Li               4.8565603000        1.5948339400       14.6601801200
Li               2.4288751700        5.8190066400       15.5922762300
Li               2.4307528200        2.2787606100       16.8108975200
Li               4.8634090400        6.4118352400       18.1966213100
Li               4.8643951400        3.4350668600       19.2904873300
Li               2.4236604900        6.5429491400       12.7197870400
Li               2.4272894200        3.3889587900       14.1055222700
Li               4.8581956400        7.1357864500       15.3241319400
Li               4.8595288000        4.0728892100       16.2562198600
Li               4.8609003400        0.8191360000       17.6878569500
Li               2.4354370600        4.7219613300       18.1756552200
Li               2.4370449000        1.6195713000       19.7076437700
Li               4.8505089100        6.2258642000       10.6224147300
Li               4.8516853700        2.2326261600       11.6259049200
Li               4.8656109500       -0.5581401600       20.2939863000
Li               7.2790276900        4.0481359800       11.2087673000
Li               7.2806523400        0.9457598000       12.7407442300
Li               9.7132340200        4.8485858800       13.2285479900
Li               9.7146021000        1.5948304400       14.6601862000
Li               7.2869193900        5.8189980400       15.5922790300
Li               7.2887921400        2.2787595600       16.8108815100
Li               9.7214492500        6.4118422500       18.1966088300
Li               9.7224542900        3.4350877000       19.2905001100
Li               7.2817026500        6.5429422200       12.7197923200
Li               7.2853431200        3.3889593900       14.1055096900
Li               9.7162342800        7.1357842200       15.3241245800
Li               9.7175760300        4.0728871100       16.2562231400
Li               9.7189463000        0.8191432800       17.6878624000
Li               7.2934817300        4.7219489700       18.1756588900
Li               7.2951003500        1.6195897700       19.7076275400
Li               9.7085380200        6.2258458400       10.6224157600
Li               9.7097315600        2.2326569600       11.6259220500
End final coordinates

     Message from routine punch:
     Nothing written, as per user request (disk_io='none')

     General routines

     Parallel routines

   This run was terminated on:   0:38:42  23Jan2025

   JOB DONE.