     Program PWSCF v.7.4 starts on 23Jan2025 at  0:35:55

     Reading input from espresso.pwi
Warning: card &CELL ignored
Warning: card    PRESS_CONV_THR   = 0.1 ignored
Warning: card    CELL_DOFREE      = 'ALL' ignored
Warning: card / ignored
Warning: card &FCP ignored
Warning: card / ignored
Warning: card &RISM ignored
Warning: card / ignored

     Current dimensions of program PWSCF are:
     Max number of different atomic species (ntypx) = 10
     Max number of k-points (npk) =  40000
     Max angular momentum in pseudopotentials (lmaxx) =  4

     IMPORTANT: XC functional enforced from input :
     Exchange-correlation= PBE
                           (   1   4   3   4   0   0   0)
     Any further DFT definition will be discarded
     Please, verify this is what you really want

     Found identity + ( -0.5000 -0.0000  0.0000) symmetry
     This is a supercell, fractional translations are disabled

     K-points division:     npool     =       3
     R & G space division:  proc/nbgrp/npool/nimage =     128
     Subspace diagonalization in iterative solution of the eigenvalue problem:
     a serial algorithm will be used

     Using Slab Decomposition

     bravais-lattice index     =            0
     lattice parameter (alat)  =      12.9830  a.u.
     unit-cell volume          =    8206.4828 (a.u.)^3
     number of atoms/cell      =           20
     number of atomic types    =            1
     number of electrons       =        60.00
     number of Kohn-Sham states=           45
     kinetic-energy cutoff     =      80.0000  Ry
     charge density cutoff     =     800.0000  Ry
     scf convergence threshold =      1.0E-06
     mixing beta               =       0.2000
     number of iterations used =            8  local-TF  mixing
     energy convergence thresh.=      1.0E-05
     force convergence thresh. =      3.9E-04
     Exchange-correlation= PBE
                           (   1   4   3   4   0   0   0)
     nstep                     =           50

     celldm(1)=  12.983009  celldm(2)=   0.000000  celldm(3)=   0.000000
     celldm(4)=   0.000000  celldm(5)=   0.000000  celldm(6)=   0.000000

     crystal axes: (cart. coord. in units of alat)
               a(1) = (   1.000000   0.000000   0.000000 )
               a(2) = (  -0.250000   0.790569   0.000000 )
               a(3) = (   0.000000   0.000000   4.743416 )

     reciprocal axes: (cart. coord. in units 2 pi/alat)
               b(1) = (  1.000000  0.316228  0.000000 )
               b(2) = (  0.000000  1.264912  0.000000 )
               b(3) = (  0.000000  0.000000  0.210819 )

     PseudoPot. # 1 for Li read from file:
     /iridisfs/home/ba3g18/Repos/Pseudopotentials/pslibrary.1.0.0/pbe/PSEUDOPOTENTIALS/Li.pbe-sl-kjpaw_psl.1.0.0.UPF
     MD5 check sum: 3f4d2cafebb47c6c3aa8ed472e6f074d
     Pseudo is Projector augmented-wave, Zval =  3.0
     Generated using 'atomic' code by A. Dal Corso  v.7.4
     Shape of augmentation charge: PSQ
     Using radial grid of 1017 points,  4 beta functions with:
                l(1) =   0
                l(2) =   0
                l(3) =   1
                l(4) =   1
     Q(r) pseudized with 0 coefficients

     atomic species   valence    mass     pseudopotential
     Li                3.00     6.94000     Li( 1.00)

     No symmetry found

   Cartesian axes

     site n.     atom                  positions (alat units)
         1        Li     tau(   1) = (   0.2500089   0.3270018   1.7953420  )
         2        Li     tau(   2) = (  -0.0000567   0.6287015   1.9959498  )
         3        Li     tau(   3) = (   0.0001008   0.1686393   2.1081878  )
         4        Li     tau(   4) = (   0.2499867   0.4650509   2.3117213  )
         5        Li     tau(   5) = (   0.2500134   0.0092908   2.4316951  )
         6        Li     tau(   6) = (  -0.0001008   0.3057026   2.6352285  )
         7        Li     tau(   7) = (   0.2500566   0.6362094   2.7474669  )
         8        Li     tau(   8) = (   0.2499909   0.1473398   2.9480742  )
         9        Li     tau(   9) = (   0.0002543   0.5056212   3.0702030  )
        10        Li     tau(  10) = (   0.4997456  -0.0312796   1.6732133  )
        11        Li     tau(  11) = (   0.7500090   0.3270018   1.7953421  )
        12        Li     tau(  12) = (   0.4999434   0.6287016   1.9959497  )
        13        Li     tau(  13) = (   0.5001008   0.1686393   2.1081877  )
        14        Li     tau(  14) = (   0.7499866   0.4650508   2.3117213  )
        15        Li     tau(  15) = (   0.7500134   0.0092909   2.4316951  )
        16        Li     tau(  16) = (   0.4998991   0.3057025   2.6352286  )
        17        Li     tau(  17) = (   0.7500566   0.6362093   2.7474669  )
        18        Li     tau(  18) = (   0.7499910   0.1473400   2.9480741  )
        19        Li     tau(  19) = (   0.5002543   0.5056212   3.0702031  )
        20        Li     tau(  20) = (   0.9997458  -0.0312797   1.6732132  )

     number of k points=    62  Marzari-Vanderbilt smearing, width (Ry)=  0.0100
                       cart. coord. in units 2pi/alat
        k(    1) = (   0.0000000   0.0000000   0.0000000), wk =   0.0166667
        k(    2) = (   0.0000000   0.1054093   0.0000000), wk =   0.0333333
        k(    3) = (   0.0000000   0.2108186   0.0000000), wk =   0.0333333
        k(    4) = (   0.0000000   0.3162279   0.0000000), wk =   0.0333333
        k(    5) = (   0.0000000   0.4216372   0.0000000), wk =   0.0333333
        k(    6) = (   0.0000000   0.5270466   0.0000000), wk =   0.0333333
        k(    7) = (   0.0000000  -0.6324559   0.0000000), wk =   0.0166667
        k(    8) = (   0.1000000   0.0316228   0.0000000), wk =   0.0333333
        k(    9) = (   0.1000000   0.1370321   0.0000000), wk =   0.0333333
        k(   10) = (   0.1000000   0.2424414   0.0000000), wk =   0.0333333
        k(   11) = (   0.1000000   0.3478507   0.0000000), wk =   0.0333333
        k(   12) = (   0.1000000   0.4532600   0.0000000), wk =   0.0333333
        k(   13) = (   0.1000000   0.5586693   0.0000000), wk =   0.0333333
        k(   14) = (   0.1000000  -0.6008331   0.0000000), wk =   0.0333333
        k(   15) = (   0.1000000  -0.4954238   0.0000000), wk =   0.0333333
        k(   16) = (   0.1000000  -0.3900144   0.0000000), wk =   0.0333333
        k(   17) = (   0.1000000  -0.2846051   0.0000000), wk =   0.0333333
        k(   18) = (   0.1000000  -0.1791958   0.0000000), wk =   0.0333333
        k(   19) = (   0.1000000  -0.0737865   0.0000000), wk =   0.0333333
        k(   20) = (   0.2000000   0.0632456   0.0000000), wk =   0.0333333
        k(   21) = (   0.2000000   0.1686549   0.0000000), wk =   0.0333333
        k(   22) = (   0.2000000   0.2740642   0.0000000), wk =   0.0333333
        k(   23) = (   0.2000000   0.3794735   0.0000000), wk =   0.0333333
        k(   24) = (   0.2000000   0.4848828   0.0000000), wk =   0.0333333
        k(   25) = (   0.2000000   0.5902921   0.0000000), wk =   0.0333333
        k(   26) = (   0.2000000  -0.5692103   0.0000000), wk =   0.0333333
        k(   27) = (   0.2000000  -0.4638010   0.0000000), wk =   0.0333333
        k(   28) = (   0.2000000  -0.3583917   0.0000000), wk =   0.0333333
        k(   29) = (   0.2000000  -0.2529823   0.0000000), wk =   0.0333333
        k(   30) = (   0.2000000  -0.1475730   0.0000000), wk =   0.0333333
        k(   31) = (   0.2000000  -0.0421637   0.0000000), wk =   0.0333333
        k(   32) = (   0.3000000   0.0948684   0.0000000), wk =   0.0333333
        k(   33) = (   0.3000000   0.2002777   0.0000000), wk =   0.0333333
        k(   34) = (   0.3000000   0.3056870   0.0000000), wk =   0.0333333
        k(   35) = (   0.3000000   0.4110963   0.0000000), wk =   0.0333333
        k(   36) = (   0.3000000   0.5165056   0.0000000), wk =   0.0333333
        k(   37) = (   0.3000000   0.6219149   0.0000000), wk =   0.0333333
        k(   38) = (   0.3000000  -0.5375875   0.0000000), wk =   0.0333333
        k(   39) = (   0.3000000  -0.4321782   0.0000000), wk =   0.0333333
        k(   40) = (   0.3000000  -0.3267689   0.0000000), wk =   0.0333333
        k(   41) = (   0.3000000  -0.2213596   0.0000000), wk =   0.0333333
        k(   42) = (   0.3000000  -0.1159502   0.0000000), wk =   0.0333333
        k(   43) = (   0.3000000  -0.0105409   0.0000000), wk =   0.0333333
        k(   44) = (   0.4000000   0.1264912   0.0000000), wk =   0.0333333
        k(   45) = (   0.4000000   0.2319005   0.0000000), wk =   0.0333333
        k(   46) = (   0.4000000   0.3373098   0.0000000), wk =   0.0333333
        k(   47) = (   0.4000000   0.4427191   0.0000000), wk =   0.0333333
        k(   48) = (   0.4000000   0.5481284   0.0000000), wk =   0.0333333
        k(   49) = (   0.4000000   0.6535377   0.0000000), wk =   0.0333333
        k(   50) = (   0.4000000  -0.5059647   0.0000000), wk =   0.0333333
        k(   51) = (   0.4000000  -0.4005554   0.0000000), wk =   0.0333333
        k(   52) = (   0.4000000  -0.2951461   0.0000000), wk =   0.0333333
        k(   53) = (   0.4000000  -0.1897368   0.0000000), wk =   0.0333333
        k(   54) = (   0.4000000  -0.0843274   0.0000000), wk =   0.0333333
        k(   55) = (   0.4000000   0.0210819   0.0000000), wk =   0.0333333
        k(   56) = (  -0.5000000  -0.1581140   0.0000000), wk =   0.0166667
        k(   57) = (  -0.5000000  -0.0527047   0.0000000), wk =   0.0333333
        k(   58) = (  -0.5000000   0.0527047   0.0000000), wk =   0.0333333
        k(   59) = (  -0.5000000   0.1581140   0.0000000), wk =   0.0333333
        k(   60) = (  -0.5000000   0.2635233   0.0000000), wk =   0.0333333
        k(   61) = (  -0.5000000   0.3689326   0.0000000), wk =   0.0333333
        k(   62) = (  -0.5000000  -0.7905698   0.0000000), wk =   0.0166667

     Initial potential from superposition of free atoms

     starting charge      59.9078, renormalised to      60.0000

     negative rho (up, down):  1.362E-03 0.000E+00
     Starting wfcs are  100 randomized atomic wfcs
     Checking if some PAW data can be deallocated...

     Self-consistent Calculation

     iteration #  1     ecut=    80.00 Ry     beta= 0.20
     Davidson diagonalization with overlap
     ethr =  1.00E-02,  avg # of iterations =  3.5

     negative rho (up, down):  9.103E-05 0.000E+00

     total energy              =    -300.84523867 Ry
     estimated scf accuracy    <       2.31101062 Ry

[...]

     iteration # 11     ecut=    80.00 Ry     beta= 0.20
     Davidson diagonalization with overlap
     c_bands:  1 eigenvalues not converged
     ethr =  6.30E-05,  avg # of iterations =  1.6

[...]

     iteration # 16     ecut=    80.00 Ry     beta= 0.20
     Davidson diagonalization with overlap
     ethr =  1.54E-06,  avg # of iterations =  9.5

[...]

     total energy              =    -300.71342159 Ry
     estimated scf accuracy    <       0.00000202 Ry

     iteration # 19     ecut=    80.00 Ry     beta= 0.20
     Davidson diagonalization with overlap
     c_bands:  1 eigenvalues not converged
     ethr =  3.36E-09,  avg # of iterations =  5.2

     negative rho (up, down):  1.292E-04 0.000E+00

     End of self-consistent calculation

          k = 0.0000 0.0000 0.0000 ( 99285 PWs)   bands (ev):

   -48.9261 -48.9260 -48.9246 -48.9246 -48.4719 -48.4718 -48.4704 -48.4703
   -48.1428 -48.1411 -48.1396 -48.1393 -48.1030 -48.0987 -48.0971 -48.0950
   -48.0590 -48.0588 -48.0581 -48.0580  -4.9876  -4.4980  -3.6485  -2.5802
    -2.3636  -2.3519  -1.9488  -1.8891  -1.5170  -1.4223  -1.3339  -1.3154
    -1.1468  -1.0483  -0.8733  -0.6817  -0.5858  -0.5059  -0.1945  -0.0845
     0.0244   0.9923   1.0667   1.1532   1.2136

[...]

          k = 0.4000 0.0211 0.0000 ( 99096 PWs)   bands (ev):

[...]

          k =-0.5000-0.1581 0.0000 ( 99124 PWs)   bands (ev):

[...]

          k =-0.5000-0.7906 0.0000 ( 99028 PWs)   bands (ev):

   -48.9253 -48.9253 -48.9253 -48.9253 -48.4712 -48.4711 -48.4710 -48.4710
   -48.1409 -48.1409 -48.1401 -48.1401 -48.1011 -48.1010 -48.0961 -48.0961
   -48.0586 -48.0586 -48.0584 -48.0584  -3.8575  -3.8575  -3.3696  -3.3696
    -2.9052  -2.9052  -2.5538  -2.5538  -2.3659  -2.3659  -1.6041  -1.6041
    -1.3697  -1.3697  -0.5070  -0.5070  -0.2864  -0.2864   0.3610   0.3610
     0.5125   0.5125   1.2582   1.2582   1.3870

     the Fermi energy is    -1.5709 ev

!    total energy              =    -300.71342173 Ry
     total all-electron energy =      -300.713584 Ry
     estimated scf accuracy    <       0.00000030 Ry
     smearing contrib. (-TS)   =      -0.00067362 Ry
     internal energy E=F+TS    =    -300.71274811 Ry

     The total energy is F=E-TS. E is the sum of the following terms:
     one-electron contribution =   -1757.01904558 Ry
     hartree contribution      =     848.40468290 Ry
     xc contribution           =     -71.62632683 Ry
     ewald contribution        =     677.76426722 Ry
     one-center paw contrib.   =       1.76367418 Ry

     convergence has been achieved in  19 iterations

     Forces acting on atoms (cartesian axes, Ry/au):

     atom    1 type  1   force =     0.00000102   -0.00010424    0.00013535
     atom    2 type  1   force =     0.00002488   -0.00004175    0.00006308
     atom    3 type  1   force =    -0.00003904    0.00001114    0.00000308
     atom    4 type  1   force =     0.00000740   -0.00002386   -0.00001673
     atom    5 type  1   force =    -0.00000848    0.00002143    0.00000032
     atom    6 type  1   force =     0.00003845   -0.00001166   -0.00001596
     atom    7 type  1   force =    -0.00002431    0.00004214   -0.00006653
     atom    8 type  1   force =     0.00000026    0.00010466   -0.00012641
     atom    9 type  1   force =    -0.00003661   -0.00007963   -0.00014623
     atom   10 type  1   force =     0.00003362    0.00008011    0.00017045
     atom   11 type  1   force =     0.00000075   -0.00010391    0.00013449
     atom   12 type  1   force =     0.00002405   -0.00004244    0.00006369
     atom   13 type  1   force =    -0.00003798    0.00001104    0.00000367
     atom   14 type  1   force =     0.00000938   -0.00002028   -0.00001636
     atom   15 type  1   force =    -0.00000780    0.00002273    0.00000210
     atom   16 type  1   force =     0.00003592   -0.00001129   -0.00001600
     atom   17 type  1   force =    -0.00002351    0.00003928   -0.00007215
     atom   18 type  1   force =    -0.00000104    0.00010504   -0.00012450
     atom   19 type  1   force =    -0.00003390   -0.00008029   -0.00014717
     atom   20 type  1   force =     0.00003693    0.00008179    0.00017182

     Total force =     0.000530     Total SCF correction =     0.000405
     SCF correction compared to forces is large: reduce conv_thr to get better values

     BFGS Geometry Optimization
     Energy error            =      2.8E-07 Ry
     Gradient error          =      1.7E-04 Ry/Bohr

     bfgs converged in   1 scf cycles and   0 bfgs steps
     (criteria: energy <  1.0E-05 Ry, force <  3.9E-04 Ry/Bohr)

     End of BFGS Geometry Optimization

     Final energy             =    -300.7134217261 Ry
Begin final coordinates

ATOMIC_POSITIONS (angstrom)
Li               1.7176393300        2.2466047300       12.3345604200
Li              -0.0003896400        4.3193755300       13.7127990200
Li               0.0006926500        1.1586045600       14.4839086300
Li               1.7174867500        3.1950447300       15.8822475800
Li               1.7176703600        0.0638304900       16.7065050200
Li              -0.0006923200        2.1002723700       18.1048434200
Li               1.7179670500        4.3709572800       18.8759560500
Li               1.7175156800        1.0122707300       20.2541911700
Li               0.0017471500        3.4737754100       21.0932540900
Li               3.4334087100       -0.2149008100       11.4954982200
Li               5.1527960900        2.2466042200       12.3345611600
Li               3.4347677000        4.3193761900       13.7127983600
Li               3.4358487800        1.1586047200       14.4839083100
Li               5.1526421700        3.1950443000       15.8822477000
Li               5.1528263600        0.0638315900       16.7065048500
Li               3.4344631500        2.1002715900       18.1048440100
Li               5.1531233000        4.3709569400       18.8759558700
Li               5.1526723300        1.0122715400       20.2541901000
Li               3.4369032000        3.4737756400       21.0932545300
Li               6.8685657000       -0.2149015600       11.4954977800
End final coordinates

     Message from routine punch:
     Nothing written, as per user request (disk_io='none')

     General routines

     Parallel routines

   This run was terminated on:   0:37:13  23Jan2025

   JOB DONE.