     Program PWSCF v.7.4 starts on 24Jan2025 at  3:41:23

     Reading input from espresso.pwi
Warning: card &CELL ignored
Warning: card    PRESS_CONV_THR   = 0.1 ignored
Warning: card    CELL_DOFREE      = 'ALL' ignored
Warning: card / ignored
Warning: card &FCP ignored
Warning: card / ignored
Warning: card &RISM ignored
Warning: card / ignored

     Current dimensions of program PWSCF are:
     Max number of different atomic species (ntypx) = 10
     Max number of k-points (npk) =  40000
     Max angular momentum in pseudopotentials (lmaxx) =  4

     IMPORTANT: XC functional enforced from input :
     Exchange-correlation= PBE
                           (   1   4   3   4   0   0   0)
     Any further DFT definition will be discarded
     Please, verify this is what you really want

     Reading input from environ.in:
     * using ionic solvent mode
     * setting boundary derivatives method to SSCS default
     * setting electrolyte-boundary derivatives method to SSCS default

Environ Warning (1001): card EOF ignored

     K-points division:     npool     =       2
     R & G space division:  proc/nbgrp/npool/nimage =     256
     Subspace diagonalization in iterative solution of the eigenvalue problem:
     a serial algorithm will be used

     Using Slab Decomposition

     bravais-lattice index     =            8
     lattice parameter (alat)  =      18.3607  a.u.
     unit-cell volume          =   20684.8735 (a.u.)^3
     number of atoms/cell      =           44
     number of atomic types    =            1
     number of electrons       =       132.00
     number of Kohn-Sham states=           99
     kinetic-energy cutoff     =      80.0000  Ry
     charge density cutoff     =     800.0000  Ry
     scf convergence threshold =      1.0E-14
     mixing beta               =       0.2000
     number of iterations used =            8  local-TF  mixing
     Exchange-correlation= PBE
                           (   1   4   3   4   0   0   0)

                                  Environ Setup Summary

          O. Andreussi, I. Dabo and N. Marzari, J. Chem. Phys. 136, 064102 (2012)
          F. Nattino, M. Truscott, N. Marzari, and O. Andreussi, J. Chem. Phys. 150, 041722 (2019)

     in publications or presentations arising from this work.

     Parameters

     compensation onset threshold      =               0.1000E+00
     static permittivity               =                    89.90
     surface tension in input (dyn/cm) =                    37.30
     surface tension in internal units =               0.4792E-04

     Solvent Boundary

     solvent mode                      =                    ionic
     derivatives method                =                   lowmem
     electrolyte derivatives method    =                   lowmem
     numerical core for derivatives    =                      fft
     switching function adopted        =                     SCCS
     density limit for vacuum region   =               0.5000E-02
     density limit for bulk solvent    =               0.1000E-03
     soft-sphere radius mode           =                    bondi
     soft-sphere softness              =                     0.50
     alpha                             =                     1.32

     Electrostatic Setup

     electrostatic problem to solve    =                    modpb
     numerical solver adopted          =                   newton
     type of auxiliary density adopted =                     none
     numerical core for poisson        =                      fft
     adopting a nested solver scheme
     inner solver                      =                       cg
     inner core                        =                      fft
     type of pbc corrections           =                parabolic
     numerical core for corrections    =                      1da

     >>>>> Grand-Canonical SCF is activated <<<<<
     Initial Total Charge  =     0.000000 e
     Target Fermi Energy   =    -1.654000 eV
     Thr. of Fermi Energy  =     0.001000 eV
     Wave-shift of Kerker  =     0.400000 bohr^-1
     Wave-shift of Hartree =     1.500000 bohr^-1
     Mixing Rate of Fermi  =     0.050000

     celldm(1)=  18.360747  celldm(2)=   0.586302  celldm(3)=   5.699811
     celldm(4)=   0.000000  celldm(5)=   0.000000  celldm(6)=   0.000000

     crystal axes: (cart. coord. in units of alat)
               a(1) = (   1.000000   0.000000   0.000000 )
               a(2) = (   0.000000   0.586302   0.000000 )
               a(3) = (   0.000000   0.000000   5.699811 )

     reciprocal axes: (cart. coord. in units 2 pi/alat)
               b(1) = (  1.000000  0.000000  0.000000 )
               b(2) = (  0.000000  1.705606  0.000000 )
               b(3) = (  0.000000  0.000000  0.175444 )

     PseudoPot. # 1 for Li read from file:
     /work/e89/e89/ba3g18/Repos/Pseudopotentials/Pslibrary/Li.pbe-sl-kjpaw_psl.1.0.0.UPF
     MD5 check sum: 3f4d2cafebb47c6c3aa8ed472e6f074d
     Pseudo is Projector augmented-wave, Zval =  3.0
     Generated using 'atomic' code by A. Dal Corso  v.7.4
     Shape of augmentation charge: PSQ
     Using radial grid of 1017 points,  4 beta functions with:
                l(1) =   0
                l(2) =   0
                l(3) =   1
                l(4) =   1
     Q(r) pseudized with 0 coefficients

     atomic species   valence    mass     pseudopotential
     Li                3.00     6.94000     Li( 1.00)

      2 Sym. Ops. (no inversion) found

                                    s                        frac. trans.

      isym =  1     identity

 cryst.   s( 1) = (     1          0          0      )
                  (     0          1          0      )
                  (     0          0          1      )

 cart.    s( 1) = (  1.0000000  0.0000000  0.0000000 )
                  (  0.0000000  1.0000000  0.0000000 )
                  (  0.0000000  0.0000000  1.0000000 )

      isym =  2     inv. 180 deg rotation - cart. axis [1,0,0]

 cryst.   s( 2) = (    -1          0          0      )
                  (     0          1          0      )
                  (     0          0          1      )

 cart.    s( 2) = ( -1.0000000  0.0000000  0.0000000 )
                  (  0.0000000  1.0000000  0.0000000 )
                  (  0.0000000  0.0000000  1.0000000 )

     point group C_s (m)
     there are  2 classes
     the character table:

       E     s
A'     1.00  1.00
A''    1.00 -1.00

     the symmetry operations in each class and the name of the first element:

     E        1
          identity
     s        2
          inv. 180 deg rotation - cart. axis [1,0,0]

   Cartesian axes

     site n.     atom                  positions (alat units)
         1        Li     tau(   1) = (   0.5000000   0.5916869   3.6219304  )
         2        Li     tau(   2) = (   0.2499914   0.4210200   2.0778598  )
         3        Li     tau(   3) = (   0.2500013   0.1102977   2.2205753  )
         4        Li     tau(   4) = (   0.5000000   0.2356989   2.1106689  )
         5        Li     tau(   5) = (   0.0000000   0.5111381   2.2648276  )
         6        Li     tau(   6) = (   0.5000000   0.1984399   2.4187356  )
         7        Li     tau(   7) = (   0.2499974   0.3188427   2.6762278  )
         8        Li     tau(   8) = (   0.2499996   0.5916501   2.8197321  )
         9        Li     tau(   9) = (   0.2500005   0.3702414   2.3761370  )
        10        Li     tau(  10) = (   0.2499999   0.0522822   2.5159551  )
        11        Li     tau(  11) = (   0.0000000   0.4675438   2.5758317  )
        12        Li     tau(  12) = (   0.5000000   0.1528516   2.7213440  )
        13        Li     tau(  13) = (   0.5000000   0.4210343   2.8800621  )
        14        Li     tau(  14) = (   0.5000000   0.1075058   3.0235760  )
        15        Li     tau(  15) = (   0.2500081   0.5451332   3.1239941  )
        16        Li     tau(  16) = (   0.2499835   0.2279504   3.2810827  )
        17        Li     tau(  17) = (   0.2499982   0.2735089   2.9784619  )
        18        Li     tau(  18) = (   0.0000000   0.3740788   3.1838764  )
        19        Li     tau(  19) = (   0.5000000   0.0561176   3.3236481  )
        20        Li     tau(  20) = (   0.5000000   0.3161342   3.4791987  )
        21        Li     tau(  21) = (   0.2500004   0.5015814   3.4349948  )
        22        Li     tau(  22) = (   0.2500207   0.1907402   3.5891512  )
        23        Li     tau(  23) = (   1.0000000   0.5917461   3.6219486  )
        24        Li     tau(  24) = (   0.7500086   0.4210200   2.0778598  )
        25        Li     tau(  25) = (   0.7499987   0.1102977   2.2205753  )
        26        Li     tau(  26) = (   1.0000000   0.2356912   2.1106673  )
        27        Li     tau(  27) = (   0.5000000   0.5111463   2.2648045  )
        28        Li     tau(  28) = (   1.0000000   0.1984631   2.4187354  )
        29        Li     tau(  29) = (   0.7500026   0.3188427   2.6762278  )
        30        Li     tau(  30) = (   0.7500004   0.5916501   2.8197321  )
        31        Li     tau(  31) = (   0.7499995   0.3702414   2.3761370  )
        32        Li     tau(  32) = (   0.7500001   0.0522822   2.5159551  )
        33        Li     tau(  33) = (   0.5000000   0.4675624   2.5757978  )
        34        Li     tau(  34) = (   1.0000000   0.1528895   2.7213535  )
        35        Li     tau(  35) = (   1.0000000   0.4210141   2.8801018  )
        36        Li     tau(  36) = (   1.0000000   0.1075672   3.0235845  )
        37        Li     tau(  37) = (   0.7499919   0.5451332   3.1239941  )
        38        Li     tau(  38) = (   0.7500165   0.2279504   3.2810827  )
        39        Li     tau(  39) = (   0.7500018   0.2735089   2.9784619  )
        40        Li     tau(  40) = (   0.5000000   0.3741281   3.1838074  )
        41        Li     tau(  41) = (   1.0000000   0.0562152   3.3236727  )
        42        Li     tau(  42) = (   1.0000000   0.3160982   3.4792515  )
        43        Li     tau(  43) = (   0.7499996   0.5015814   3.4349948  )
        44        Li     tau(  44) = (   0.7499793   0.1907402   3.5891512  )

   Crystallographic axes

     site n.     atom                  positions (cryst. coord.)
         1        Li     tau(   1) = (  0.5000000  1.0091845  0.6354475  )
         2        Li     tau(   2) = (  0.2499914  0.7180940  0.3645489  )
         3        Li     tau(   3) = (  0.2500013  0.1881244  0.3895875  )
         4        Li     tau(   4) = (  0.5000000  0.4020094  0.3703051  )
         5        Li     tau(   5) = (  0.0000000  0.8718000  0.3973514  )
         6        Li     tau(   6) = (  0.5000000  0.3384602  0.4243536  )
         7        Li     tau(   7) = (  0.2499974  0.5438198  0.4695292  )
         8        Li     tau(   8) = (  0.2499996  1.0091218  0.4947063  )
         9        Li     tau(   9) = (  0.2500005  0.6314858  0.4168800  )
        10        Li     tau(  10) = (  0.2499999  0.0891729  0.4414103  )
        11        Li     tau(  11) = (  0.0000000  0.7974453  0.4519153  )
        12        Li     tau(  12) = (  0.5000000  0.2607045  0.4774446  )
        13        Li     tau(  13) = (  0.5000000  0.7181185  0.5052908  )
[...]
     atom    7 type  1   force =     0.00012764    0.01492029   -3.71258700
     atom    8 type  1   force =    -0.00019603   -0.01768922   -0.64560044
     atom    9 type  1   force =     0.00004267    0.03391462  -10.10360128
     atom   10 type  1   force =    -0.00014952   -0.02104137   -7.12560110
     atom   11 type  1   force =    -0.00000001    0.01805534   -5.86788952
     atom   12 type  1   force =    -0.00000001   -0.01001583   -2.74375776
     atom   13 type  1   force =    -0.00000001    0.01739837    0.64504754
     atom   14 type  1   force =    -0.00000001   -0.01445411    3.71247533
     atom   15 type  1   force =    -0.00039649   -0.01779901    5.86833312
     atom   16 type  1   force =     0.00048198    0.01505931    9.21353736
     atom   17 type  1   force =     0.00018310    0.01023549    2.74371438
     atom   18 type  1   force =     0.00000000    0.02177886    7.12612983
     atom   19 type  1   force =    -0.00000001   -0.03333162   10.10332154
     atom   20 type  1   force =    -0.00000001    0.09881514   13.52587429
     atom   21 type  1   force =    -0.00026146   -0.07650016   12.58475410
     atom   22 type  1   force =     0.00016463    0.14745745   15.46383200
     atom   23 type  1   force =     0.00000003   -0.15793196   15.89763421
     atom   24 type  1   force =    -0.00000385    0.15765729  -15.89769938
     atom   25 type  1   force =     0.00004822   -0.09919985  -13.52670358
     atom   26 type  1   force =     0.00000002   -0.14750758  -15.46364429
     atom   27 type  1   force =    -0.00000000    0.07640805  -12.58492008
     atom   28 type  1   force =     0.00000002   -0.01519325   -9.21330175
     atom   29 type  1   force =    -0.00012765    0.01492031   -3.71258702
     atom   30 type  1   force =     0.00019600   -0.01768923   -0.64560045
     atom   31 type  1   force =    -0.00004267    0.03391465  -10.10360128
     atom   32 type  1   force =     0.00014951   -0.02104139   -7.12560111
     atom   33 type  1   force =    -0.00000000    0.01761159   -5.86861609
     atom   34 type  1   force =     0.00000003   -0.01054542   -2.74366141
     atom   35 type  1   force =     0.00000003    0.01807672    0.64610264
     atom   36 type  1   force =     0.00000003   -0.01541560    3.71255883
     atom   37 type  1   force =     0.00039648   -0.01779902    5.86833312
     atom   38 type  1   force =    -0.00048199    0.01505933    9.21353735
     atom   39 type  1   force =    -0.00018312    0.01023549    2.74371439
     atom   40 type  1   force =    -0.00000001    0.02042284    7.12482242
     atom   41 type  1   force =     0.00000003   -0.03468932   10.10355793
     atom   42 type  1   force =     0.00000003    0.09978291   13.52726911
     atom   43 type  1   force =     0.00026143   -0.07650016   12.58475410
     atom   44 type  1   force =    -0.00016465    0.14745745   15.46383202
     The local contribution  to forces
     atom    1 type  1   force =     0.00000136    0.15512784  -15.76251844
     atom    2 type  1   force =    -0.00000416   -0.15526847   15.76262059
     atom    3 type  1   force =     0.00004928    0.09368504   13.32393380
     atom    4 type  1   force =     0.00000136    0.13502010   15.29367760
     atom    5 type  1   force =    -0.00000000   -0.06545508   12.38467888
     atom    6 type  1   force =     0.00000136    0.01432945    9.06489131
     atom    7 type  1   force =    -0.00012698   -0.01643232    3.64951188
     atom    8 type  1   force =     0.00020093    0.01798221    0.63489023
     atom    9 type  1   force =    -0.00004166   -0.03346344    9.94314044
     atom   10 type  1   force =     0.00015348    0.02312131    7.01584330
     atom   11 type  1   force =     0.00000000   -0.01788057    5.77625436
     atom   12 type  1   force =     0.00000136    0.01210193    2.70401815
     atom   13 type  1   force =     0.00000136   -0.01768245   -0.63439240
     atom   14 type  1   force =     0.00000136    0.01595903   -3.64946389
     atom   15 type  1   force =     0.00040713    0.01762319   -5.77675136
     atom   16 type  1   force =    -0.00048078   -0.01449034   -9.06518117
     atom   17 type  1   force =    -0.00018373   -0.01232138   -2.70403155
     atom   18 type  1   force =     0.00000000   -0.02386659   -7.01641971
     atom   19 type  1   force =     0.00000136    0.03287552   -9.94291556
     atom   20 type  1   force =     0.00000136   -0.09329347  -13.32315781
     atom   21 type  1   force =     0.00026694    0.06538764  -12.38511247
     atom   22 type  1   force =    -0.00017003   -0.13505014  -15.29391356
     atom   23 type  1   force =     0.00000273    0.15554969  -15.76259858
     atom   24 type  1   force =     0.00000689   -0.15526847   15.76262059
     atom   25 type  1   force =    -0.00004656    0.09368504   13.32393380
     atom   26 type  1   force =     0.00000272    0.13509769   15.29366474
     atom   27 type  1   force =     0.00000136   -0.06529375   12.38522444
     atom   28 type  1   force =     0.00000272    0.01462540    9.06489491
     atom   29 type  1   force =     0.00012970   -0.01643232    3.64951188
     atom   30 type  1   force =    -0.00019821    0.01798221    0.63489023
     atom   31 type  1   force =     0.00004438   -0.03346344    9.94314044
     atom   32 type  1   force =    -0.00015075    0.02312131    7.01584330
     atom   33 type  1   force =     0.00000136   -0.01743061    5.77697911
     atom   34 type  1   force =     0.00000272    0.01263918    2.70392935
     atom   35 type  1   force =     0.00000272   -0.01837379   -0.63544628
     atom   36 type  1   force =     0.00000272    0.01693782   -3.64953742
     atom   37 type  1   force =    -0.00040441    0.01762319   -5.77675136
     atom   38 type  1   force =     0.00048349   -0.01449034   -9.06518117
     atom   39 type  1   force =     0.00018645   -0.01232138   -2.70403155
     atom   40 type  1   force =     0.00000136   -0.02249229   -7.01513274
     atom   41 type  1   force =     0.00000272    0.03424133   -9.94315795
     atom   42 type  1   force =     0.00000272   -0.09427549  -13.32454751
     atom   43 type  1   force =    -0.00026423    0.06538764  -12.38511247
     atom   44 type  1   force =     0.00017275   -0.13505014  -15.29391356
     The core correction contribution to forces
     atom    1 type  1   force =     0.00000000    0.00000000    0.00000000
     atom    2 type  1   force =     0.00000000    0.00000000    0.00000000
     atom    3 type  1   force =     0.00000000    0.00000000    0.00000000
     atom    4 type  1   force =     0.00000000    0.00000000    0.00000000
     atom    5 type  1   force =     0.00000000    0.00000000    0.00000000
     atom    6 type  1   force =     0.00000000    0.00000000    0.00000000
     atom    7 type  1   force =     0.00000000    0.00000000    0.00000000
     atom    8 type  1   force =     0.00000000    0.00000000    0.00000000
     atom    9 type  1   force =     0.00000000    0.00000000    0.00000000
     atom   10 type  1   force =     0.00000000    0.00000000    0.00000000
     atom   11 type  1   force =     0.00000000    0.00000000    0.00000000
     atom   12 type  1   force =     0.00000000    0.00000000    0.00000000
     atom   13 type  1   force =     0.00000000    0.00000000    0.00000000
     atom   14 type  1   force =     0.00000000    0.00000000    0.00000000
     atom   15 type  1   force =     0.00000000    0.00000000    0.00000000
     atom   16 type  1   force =     0.00000000    0.00000000    0.00000000
     atom   17 type  1   force =     0.00000000    0.00000000    0.00000000
     atom   18 type  1   force =     0.00000000    0.00000000    0.00000000
     atom   19 type  1   force =     0.00000000    0.00000000    0.00000000
     atom   20 type  1   force =     0.00000000    0.00000000    0.00000000
     atom   21 type  1   force =     0.00000000    0.00000000    0.00000000
     atom   22 type  1   force =     0.00000000    0.00000000    0.00000000
     atom   23 type  1   force =     0.00000000    0.00000000    0.00000000
     atom   24 type  1   force =     0.00000000    0.00000000    0.00000000
     atom   25 type  1   force =     0.00000000    0.00000000    0.00000000
     atom   26 type  1   force =     0.00000000    0.00000000    0.00000000
     atom   27 type  1   force =     0.00000000    0.00000000    0.00000000
     atom   28 type  1   force =     0.00000000    0.00000000    0.00000000
     atom   29 type  1   force =     0.00000000    0.00000000    0.00000000
     atom   30 type  1   force =     0.00000000    0.00000000    0.00000000
     atom   31 type  1   force =     0.00000000    0.00000000    0.00000000
     atom   32 type  1   force =     0.00000000    0.00000000    0.00000000
     atom   33 type  1   force =     0.00000000    0.00000000    0.00000000
     atom   34 type  1   force =     0.00000000    0.00000000    0.00000000
     atom   35 type  1   force =     0.00000000    0.00000000    0.00000000
     atom   36 type  1   force =     0.00000000    0.00000000    0.00000000
     atom   37 type  1   force =     0.00000000    0.00000000    0.00000000
     atom   38 type  1   force =     0.00000000    0.00000000    0.00000000
     atom   39 type  1   force =     0.00000000    0.00000000    0.00000000
     atom   40 type  1   force =     0.00000000    0.00000000    0.00000000
     atom   41 type  1   force =     0.00000000    0.00000000    0.00000000
     atom   42 type  1   force =     0.00000000    0.00000000    0.00000000
     atom   43 type  1   force =     0.00000000    0.00000000    0.00000000
     atom   44 type  1   force =     0.00000000    0.00000000    0.00000000
     The Hubbard contrib.    to forces
     atom    1 type  1   force =     0.00000000    0.00000000    0.00000000
     atom    2 type  1   force =     0.00000000    0.00000000    0.00000000
     atom    3 type  1   force =     0.00000000    0.00000000    0.00000000
     atom    4 type  1   force =     0.00000000    0.00000000    0.00000000
     atom    5 type  1   force =     0.00000000    0.00000000    0.00000000
     atom    6 type  1   force =     0.00000000    0.00000000    0.00000000
     atom    7 type  1   force =     0.00000000    0.00000000    0.00000000
     atom    8 type  1   force =     0.00000000    0.00000000    0.00000000
     atom    9 type  1   force =     0.00000000    0.00000000    0.00000000
     atom   10 type  1   force =     0.00000000    0.00000000    0.00000000
     atom   11 type  1   force =     0.00000000    0.00000000    0.00000000
     atom   12 type  1   force =     0.00000000    0.00000000    0.00000000
     atom   13 type  1   force =     0.00000000    0.00000000    0.00000000
     atom   14 type  1   force =     0.00000000    0.00000000    0.00000000
     atom   15 type  1   force =     0.00000000    0.00000000    0.00000000
     atom   16 type  1   force =     0.00000000    0.00000000    0.00000000
     atom   17 type  1   force =     0.00000000    0.00000000    0.00000000
     atom   18 type  1   force =     0.00000000    0.00000000    0.00000000
     atom   19 type  1   force =     0.00000000    0.00000000    0.00000000
     atom   20 type  1   force =     0.00000000    0.00000000    0.00000000
     atom   21 type  1   force =     0.00000000    0.00000000    0.00000000
     atom   22 type  1   force =     0.00000000    0.00000000    0.00000000
     atom   23 type  1   force =     0.00000000    0.00000000    0.00000000
     atom   24 type  1   force =     0.00000000    0.00000000    0.00000000
     atom   25 type  1   force =     0.00000000    0.00000000    0.00000000
     atom   26 type  1   force =     0.00000000    0.00000000    0.00000000
     atom   27 type  1   force =     0.00000000    0.00000000    0.00000000
     atom   28 type  1   force =     0.00000000    0.00000000    0.00000000
     atom   29 type  1   force =     0.00000000    0.00000000    0.00000000
     atom   30 type  1   force =     0.00000000    0.00000000    0.00000000
     atom   31 type  1   force =     0.00000000    0.00000000    0.00000000
     atom   32 type  1   force =     0.00000000    0.00000000    0.00000000
     atom   33 type  1   force =     0.00000000    0.00000000    0.00000000
     atom   34 type  1   force =     0.00000000    0.00000000    0.00000000
     atom   35 type  1   force =     0.00000000    0.00000000    0.00000000
     atom   36 type  1   force =     0.00000000    0.00000000    0.00000000
     atom   37 type  1   force =     0.00000000    0.00000000    0.00000000
     atom   38 type  1   force =     0.00000000    0.00000000    0.00000000
     atom   39 type  1   force =     0.00000000    0.00000000    0.00000000
     atom   40 type  1   force =     0.00000000    0.00000000    0.00000000
     atom   41 type  1   force =     0.00000000    0.00000000    0.00000000
     atom   42 type  1   force =     0.00000000    0.00000000    0.00000000
     atom   43 type  1   force =     0.00000000    0.00000000    0.00000000
     atom   44 type  1   force =     0.00000000    0.00000000    0.00000000
     The SCF correction term to forces
     atom    1 type  1   force =     0.00000000   -0.00000001   -0.00000006
     atom    2 type  1   force =     0.00000000    0.00000000    0.00000007
     atom    3 type  1   force =     0.00000000   -0.00000001    0.00000011
     atom    4 type  1   force =    -0.00000000   -0.00000000    0.00000007
     atom    5 type  1   force =     0.00000000    0.00000000    0.00000011
     atom    6 type  1   force =    -0.00000000   -0.00000000    0.00000012
     atom    7 type  1   force =     0.00000001    0.00000000    0.00000008
     atom    8 type  1   force =     0.00000000    0.00000000    0.00000003
     atom    9 type  1   force =     0.00000000   -0.00000000    0.00000012
     atom   10 type  1   force =     0.00000000    0.00000000    0.00000011
     atom   11 type  1   force =    -0.00000000    0.00000000    0.00000009
     atom   12 type  1   force =    -0.00000000   -0.00000000    0.00000006
     atom   13 type  1   force =     0.00000000   -0.00000000    0.00000001
     atom   14 type  1   force =    -0.00000000   -0.00000000   -0.00000004
     atom   15 type  1   force =    -0.00000000   -0.00000000   -0.00000007
     atom   16 type  1   force =     0.00000000   -0.00000000   -0.00000010
     atom   17 type  1   force =     0.00000000    0.00000000   -0.00000003
     atom   18 type  1   force =     0.00000000   -0.00000000   -0.00000008
     atom   19 type  1   force =    -0.00000000    0.00000000   -0.00000011
     atom   20 type  1   force =     0.00000000    0.00000001   -0.00000011
     atom   21 type  1   force =    -0.00000000   -0.00000000   -0.00000011
     atom   22 type  1   force =     0.00000000    0.00000000   -0.00000007
     atom   23 type  1   force =    -0.00000000   -0.00000000   -0.00000006
     atom   24 type  1   force =    -0.00000000    0.00000000    0.00000007
     atom   25 type  1   force =    -0.00000000   -0.00000001    0.00000011
     atom   26 type  1   force =     0.00000000   -0.00000001    0.00000006
     atom   27 type  1   force =     0.00000000    0.00000000    0.00000012
     atom   28 type  1   force =    -0.00000000   -0.00000000    0.00000011
     atom   29 type  1   force =    -0.00000001    0.00000000    0.00000008
     atom   30 type  1   force =    -0.00000000    0.00000000    0.00000003
     atom   31 type  1   force =    -0.00000000   -0.00000000    0.00000012
     atom   32 type  1   force =    -0.00000000    0.00000000    0.00000011
     atom   33 type  1   force =     0.00000000    0.00000001    0.00000010
     atom   34 type  1   force =     0.00000000   -0.00000000    0.00000006
     atom   35 type  1   force =    -0.00000000   -0.00000000    0.00000001
     atom   36 type  1   force =    -0.00000000   -0.00000000   -0.00000004
     atom   37 type  1   force =     0.00000000   -0.00000000   -0.00000007
     atom   38 type  1   force =    -0.00000000   -0.00000000   -0.00000010
     atom   39 type  1   force =    -0.00000000    0.00000000   -0.00000003
     atom   40 type  1   force =     0.00000000   -0.00000000   -0.00000009
     atom   41 type  1   force =    -0.00000000   -0.00000000   -0.00000011
     atom   42 type  1   force =     0.00000000    0.00000001   -0.00000011
     atom   43 type  1   force =     0.00000000   -0.00000000   -0.00000011
     atom   44 type  1   force =    -0.00000000    0.00000000   -0.00000007

     Total force =     0.001127     Total SCF correction =     0.000001

     Writing all to output data dir ./Li/Lithium.save/ :
     XML data file

     General routines

     Parallel routines

     PAW routines

     Environ routines

   This run was terminated on:   4:15: 4  24Jan2025

   JOB DONE.