     Program PWSCF v.7.4 starts on  3Jan2025 at 12: 9:52

     Reading input from espresso.pwi
Warning: card &CELL ignored
Warning: card    PRESS_CONV_THR   = 0.1 ignored
Warning: card    CELL_DOFREE      = 'ALL' ignored
Warning: card / ignored
Warning: card &FCP ignored
Warning: card / ignored
Warning: card &RISM ignored
Warning: card / ignored

     Current dimensions of program PWSCF are:
     Max number of different atomic species (ntypx) = 10
     Max number of k-points (npk) =  40000
     Max angular momentum in pseudopotentials (lmaxx) =  4

     IMPORTANT: XC functional enforced from input :
     Exchange-correlation= PBE
                           (   1   4   3   4   0   0   0)
     Any further DFT definition will be discarded
     Please, verify this is what you really want

     Reading input from environ.in:
     * using ionic solvent mode
     * setting boundary derivatives method to SSCS default
     * setting electrolyte-boundary derivatives method to SSCS default

Environ Warning (1001): card EOF ignored

     Found identity + (  0.0000 -0.5000  0.0000) symmetry
     This is a supercell, fractional translations are disabled

     R & G space division:  proc/nbgrp/npool/nimage =     256
     Subspace diagonalization in iterative solution of the eigenvalue problem:
     a serial algorithm will be used

     Using Slab Decomposition

     bravais-lattice index     =           14
     lattice parameter (alat)  =      11.2436  a.u.
     unit-cell volume          =   10615.2838 (a.u.)^3
     number of atoms/cell      =           16
     number of atomic types    =            1
     number of electrons       =        48.00
     number of Kohn-Sham states=           36
     kinetic-energy cutoff     =      80.0000  Ry
     charge density cutoff     =     800.0000  Ry
     scf convergence threshold =      1.0E-06
     mixing beta               =       0.2000
     number of iterations used =            8  local-TF  mixing
     energy convergence thresh.=      1.0E-05
     force convergence thresh. =      3.9E-04
     Exchange-correlation= PBE
                           (   1   4   3   4   0   0   0)
     nstep                     =          999

                                  Environ Setup Summary

          O. Andreussi, I. Dabo and N. Marzari, J. Chem. Phys. 136, 064102 (2012)
          F. Nattino, M. Truscott, N. Marzari, and O. Andreussi, J. Chem. Phys. 150, 041722 (2019)

     in publications or presentations arising from this work.

     Parameters

     compensation onset threshold      =               0.1000E+00
     static permittivity               =                    89.90
     surface tension in input (dyn/cm) =                    37.30
     surface tension in internal units =               0.4792E-04

     Solvent Boundary

     solvent mode                      =                    ionic
     derivatives method                =                   lowmem
     electrolyte derivatives method    =                   lowmem
     numerical core for derivatives    =                      fft
     switching function adopted        =                     SCCS
     density limit for vacuum region   =               0.5000E-02
     density limit for bulk solvent    =               0.1000E-03
     soft-sphere radius mode           =                    bondi
     soft-sphere softness              =                     0.50
     alpha                             =                     1.32

     Electrostatic Setup

     electrostatic problem to solve    =                    modpb
     numerical solver adopted          =                   newton
     type of auxiliary density adopted =                     none
     numerical core for poisson        =                      fft
     adopting a nested solver scheme
     inner solver                      =                       cg
     inner core                        =                      fft
     type of pbc corrections           =                parabolic
     numerical core for corrections    =                      1da

     >>>>> Grand-Canonical SCF is activated <<<<<
     Initial Total Charge  =     0.000000 e
     Target Fermi Energy   =    -1.904000 eV
     Thr. of Fermi Energy  =     0.001000 eV
     Wave-shift of Kerker  =     0.400000 bohr^-1
     Wave-shift of Hartree =     1.500000 bohr^-1
     Mixing Rate of Fermi  =     0.050000

     celldm(1)=  11.243615  celldm(2)=   1.000000  celldm(3)=   7.921182
     celldm(4)=   0.000000  celldm(5)=   0.000000  celldm(6)=  -0.333333

     crystal axes: (cart. coord. in units of alat)
               a(1) = (   1.000000   0.000000   0.000000 )
               a(2) = (  -0.333333   0.942809   0.000000 )
               a(3) = (   0.000000   0.000000   7.921182 )

     reciprocal axes: (cart. coord. in units 2 pi/alat)
               b(1) = (  1.000000  0.353553 -0.000000 )
               b(2) = (  0.000000  1.060660  0.000000 )
               b(3) = (  0.000000 -0.000000  0.126244 )

     PseudoPot. # 1 for Li read from file:
     /work/e89/e89/ba3g18/Repos/Pseudopotentials/Pslibrary/Li.pbe-sl-kjpaw_psl.1.0.0.UPF
     MD5 check sum: 3f4d2cafebb47c6c3aa8ed472e6f074d
     Pseudo is Projector augmented-wave, Zval =  3.0
     Generated using 'atomic' code by A. Dal Corso  v.7.4
     Shape of augmentation charge: PSQ
     Using radial grid of 1017 points,  4 beta functions with:
                l(1) =   0
                l(2) =   0
                l(3) =   1
                l(4) =   1
     Q(r) pseudized with 0 coefficients

     atomic species   valence    mass     pseudopotential
     Li                3.00     6.94000     Li( 1.00)

      2 Sym. Ops. (no inversion) found

                                    s                        frac. trans.

      isym =  1     identity

 cryst.   s( 1) = (     1          0          0      )
                  (     0          1          0      )
                  (     0          0          1      )

 cart.    s( 1) = (  1.0000000 -0.0000000  0.0000000 )
                  (  0.0000000  1.0000000  0.0000000 )
                  (  0.0000000  0.0000000  1.0000000 )

      isym =  2     180 deg rotation - cart. axis [0,0,1]

 cryst.   s( 2) = (    -1          0          0      )
                  (     0         -1          0      )
                  (     0          0          1      )

 cart.    s( 2) = ( -1.0000000  0.0000000  0.0000000 )
                  (  0.0000000 -1.0000000  0.0000000 )
                  (  0.0000000  0.0000000  1.0000000 )

     point group C_2  (2)
     there are  2 classes
     the character table:

       E     C2
A      1.00  1.00
B      1.00 -1.00

     the symmetry operations in each class and the name of the first element:

     E        1
          identity
     C2       2
          180 deg rotation - cart. axis [0,0,1]

   Cartesian axes

     site n.     atom                  positions (alat units)
         1        Li     tau(   1) = (   0.1666648   0.2357040   3.3513560  )
         2        Li     tau(   2) = (   0.3333333   0.4714046   3.7557152  )
         3        Li     tau(   3) = (   0.1666665   0.2357009   4.1654608  )
         4        Li     tau(   4) = (   0.3333333   0.4714046   4.5698230  )
         5        Li     tau(   5) = (   0.0000021   0.7071092   3.3513663  )
         6        Li     tau(   6) = (   0.1666667   0.9428090   3.7557282  )
         7        Li     tau(   7) = (   0.0000005   0.7071032   4.1654732  )
         8        Li     tau(   8) = (   0.1666667   0.9428090   4.5698277  )
         9        Li     tau(   9) = (   0.6666645   0.2356999   3.3513663  )
        10        Li     tau(  10) = (   0.8333333   0.4714046   3.7557235  )
        11        Li     tau(  11) = (   0.6666661   0.2357059   4.1654732  )
        12        Li     tau(  12) = (   0.8333333   0.4714046   4.5698355  )
        13        Li     tau(  13) = (   0.5000019   0.7071051   3.3513560  )
        14        Li     tau(  14) = (   0.6666667   0.9428090   3.7557135  )
        15        Li     tau(  15) = (   0.5000002   0.7071081   4.1654608  )
        16        Li     tau(  16) = (   0.6666667   0.9428090   4.5698184  )

   Crystallographic axes

     site n.     atom                  positions (cryst. coord.)
         1        Li     tau(   1) = (  0.2499987  0.2500019  0.4230879  )
         2        Li     tau(   2) = (  0.4999999  0.5000001  0.4741357  )
         3        Li     tau(   3) = (  0.2499993  0.2499986  0.5258635  )
         4        Li     tau(   4) = (  0.4999999  0.5000001  0.5769118  )
         5        Li     tau(   5) = (  0.2500027  0.7500025  0.4230892  )
         6        Li     tau(   6) = (  0.4999997  1.0000001  0.4741373  )
         7        Li     tau(   7) = (  0.2499990  0.7499962  0.5258651  )
         8        Li     tau(   8) = (  0.4999997  1.0000000  0.5769123  )
         9        Li     tau(   9) = (  0.7499970  0.2499975  0.4230892  )
        10        Li     tau(  10) = (  0.9999999  0.5000001  0.4741367  )
        11        Li     tau(  11) = (  0.7500007  0.2500039  0.5258651  )
        12        Li     tau(  12) = (  0.9999999  0.5000001  0.5769133  )
        13        Li     tau(  13) = (  0.7500010  0.7499982  0.4230879  )
        14        Li     tau(  14) = (  0.9999997  1.0000000  0.4741355  )
        15        Li     tau(  15) = (  0.7500004  0.7500014  0.5258635  )
        16        Li     tau(  16) = (  0.9999997  1.0000000  0.5769112  )

     number of k points=    61  Marzari-Vanderbilt smearing, width (Ry)=  0.0100
                       cart. coord. in units 2pi/alat
        k(    1) = (   0.0000000   0.0000000   0.0000000), wk =   0.0165289
        k(    2) = (   0.0000000   0.0964237   0.0000000), wk =   0.0330579
        k(    3) = (   0.0000000   0.1928473   0.0000000), wk =   0.0330579
        k(    4) = (   0.0000000   0.2892710   0.0000000), wk =   0.0330579
        k(    5) = (   0.0000000   0.3856946   0.0000000), wk =   0.0330579
        k(    6) = (   0.0000000   0.4821183   0.0000000), wk =   0.0330579
        k(    7) = (   0.0909091   0.0321412   0.0000000), wk =   0.0330579
        k(    8) = (   0.0909091   0.1285648   0.0000000), wk =   0.0330579
        k(    9) = (   0.0909091   0.2249885   0.0000000), wk =   0.0330579
        k(   10) = (   0.0909091   0.3214122   0.0000000), wk =   0.0330579
        k(   11) = (   0.0909091   0.4178358   0.0000000), wk =   0.0330579
        k(   12) = (   0.0909091   0.5142595   0.0000000), wk =   0.0330579
        k(   13) = (   0.0909091  -0.4499771   0.0000000), wk =   0.0330579
        k(   14) = (   0.0909091  -0.3535534   0.0000000), wk =   0.0330579
        k(   15) = (   0.0909091  -0.2571298   0.0000000), wk =   0.0330579
        k(   16) = (   0.0909091  -0.1607061   0.0000000), wk =   0.0330579
        k(   17) = (   0.0909091  -0.0642825   0.0000000), wk =   0.0330579
        k(   18) = (   0.1818182   0.0642824   0.0000000), wk =   0.0330579
        k(   19) = (   0.1818182   0.1607060   0.0000000), wk =   0.0330579
        k(   20) = (   0.1818182   0.2571297   0.0000000), wk =   0.0330579
        k(   21) = (   0.1818182   0.3535533   0.0000000), wk =   0.0330579
[...]
     number of bfgs steps    =  14

     energy             old  =    -240.6429025282 Ry
     energy             new  =    -240.6429068336 Ry

     CASE: energy            _new < energy            _old

     new trust radius        =       0.0020105323 bohr
     new conv_thr            =            1.0E-12 Ry

ATOMIC_POSITIONS (angstrom)
Li               0.9915911254        1.4023470677       19.8975607552
Li               1.9832882700        2.8047934300       22.3318426620
Li               0.9916459949        1.4022902630       24.7966019904
Li               1.9832882800        2.8047934500       27.2340391009
Li              -0.0000242266        4.2072538215       19.8974875730
Li               0.9916443500        5.6095863900       22.3318590590
Li               0.0000240633        4.2072891162       24.7964901910
Li               0.9916443300        5.6095863500       27.2340294797
Li               3.9666008466        1.4023326485       19.8974876330
Li               4.9582206700        2.8047934200       22.3318912240
Li               3.9665525467        1.4022973238       24.7964902110
Li               4.9582206800        2.8047934400       27.2340929970
Li               2.9749854946        4.2072394023       19.8975607252
Li               3.9665767500        5.6095863800       22.3319232112
Li               2.9749306151        4.2072961770       24.7966019604
Li               3.9665767300        5.6095863300       27.2339852839

     Writing config-only to output data dir ./Li/Lithium.save/ :
     XML data file     NEW-OLD atomic charge density approx. for the potential

[...]

     Self-consistent Calculation

[...]

     Threshold (ethr) on eigenvalues was too large:
     Diagonalizing with lowered threshold

     Davidson diagonalization with overlap

[...]

     add environment contribution to local potential

     total energy              =    -240.64290825 Ry
     estimated scf accuracy    <          1.6E-12 Ry

     total charge of GC-SCF    =      -2.64042729 e
     the Fermi energy          =      -1.90395895 eV
                        (error :       0.00004105 eV)
     electrostatic embedding   =      -2.08546785 Ry
     cavitation energy         =       0.01235683 Ry
     electrolyte free energy   =      -0.03312676 Ry
     correction to one-el term =      73.32622604 Ry

     iteration # 12     ecut=    80.00 Ry     beta= 0.20
     Davidson diagonalization with overlap

     ethr =  1.00E-13,  avg # of iterations =  6.2

     negative rho (up, down):  1.595E-04 0.000E+00

     End of self-consistent calculation

[...]

          k = 0.4545 0.0643 0.0000 (128255 PWs)   bands (ev):

   -48.6721 -48.6708 -48.6704 -48.6690 -48.6638 -48.6632 -48.6624 -48.6619
   -48.4114 -48.4087 -48.4042 -48.4034 -48.4016 -48.4011 -48.3978 -48.3962
    -4.6239  -4.1094  -4.0793  -3.5644  -3.2959  -2.7301  -2.4711  -2.4657
    -1.9168  -1.8370  -1.6574  -1.5150  -1.0925  -0.9965  -0.9830  -0.6686
    -0.6550  -0.1161   0.0301   0.1893

     occupation numbers
     1.0000   1.0000   1.0000   1.0000   1.0000   1.0000   1.0000   1.0000
     1.0000   1.0000   1.0000   1.0000   1.0000   1.0000   1.0000   1.0000
     1.0000   1.0000   1.0000   1.0000   1.0000   1.0000   1.0000   1.0000
     0.4672   0.1396   0.0009   0.0000   0.0000   0.0000   0.0000   0.0000
     0.0000   0.0000   0.0000   0.0000

     the Fermi energy is    -1.9040 ev

!    total energy              =    -240.64290828 Ry
     total all-electron energy =      -240.643038 Ry
     estimated scf accuracy    <          8.9E-13 Ry

!    total charge of GC-SCF    =      -2.64041029 e
     smearing contrib. (-TS)   =       0.00037054 Ry
     internal energy E=F+TS    =    -240.64327882 Ry

     The total energy is F=E-TS. E is the sum of the following terms:
     one-electron contribution =   -2602.31441887 Ry
     hartree contribution      =    1276.88324148 Ry
     xc contribution           =     -58.10202816 Ry
     ewald contribution        =    1069.88941180 Ry
     one-center paw contrib.   =       1.41105181 Ry
      -> PAW hartree energy AE =       7.45444677 Ry
      -> PAW hartree energy PS =      -7.23184535 Ry
      -> PAW xc energy AE      =      -3.49025598 Ry
      -> PAW xc energy PS      =       3.35584507 Ry
      -> total E_H with PAW    =    1277.10584290 Ry
      -> total E_XC with PAW   =     -58.23643907 Ry
     pot.stat. contrib. (-muN) =       0.36950276 Ry
     electrostatic embedding   =      -2.08546412 Ry
     cavitation energy         =       0.01235683 Ry
     electrolyte free energy   =      -0.03312660 Ry
     correction to one-el term =      73.32619426 Ry

     WARNING: you are using the parabolic pbc correction;
              the potential shift above must be added to
              band and Fermi energies.

     convergence has been achieved in  12 iterations
     The dielectric solvent contribution to forces
     atom    1 type  1   force =    -0.00000021   -0.00000136    0.12038613
     atom    2 type  1   force =    -0.00000000    0.00000000    0.04172531
     atom    3 type  1   force =     0.00000001   -0.00000092   -0.04169253
     atom    4 type  1   force =    -0.00000000    0.00000003   -0.12042204
     atom    5 type  1   force =    -0.00000018    0.00000140    0.12038435
     atom    6 type  1   force =    -0.00000000   -0.00000000    0.04172476
     atom    7 type  1   force =     0.00000005    0.00000093   -0.04168886
     atom    8 type  1   force =    -0.00000001   -0.00000002   -0.12042277
     atom    9 type  1   force =     0.00000016   -0.00000140    0.12038436
     atom   10 type  1   force =    -0.00000000    0.00000000    0.04172353
     atom   11 type  1   force =    -0.00000005   -0.00000093   -0.04168886
     atom   12 type  1   force =    -0.00000001    0.00000003   -0.12042065
     atom   13 type  1   force =     0.00000020    0.00000136    0.12038612
     atom   14 type  1   force =    -0.00000000   -0.00000000    0.04172263
     atom   15 type  1   force =    -0.00000001    0.00000092   -0.04169253
     atom   16 type  1   force =    -0.00000002   -0.00000003   -0.12042438

     Forces acting on atoms (cartesian axes, Ry/au):

     atom    1 type  1   force =     0.00000195    0.00000418    0.00007772
     atom    2 type  1   force =     0.00000000    0.00000000   -0.00029166
     atom    3 type  1   force =    -0.00000111    0.00000913    0.00037481
     atom    4 type  1   force =     0.00000000    0.00000000   -0.00016115
     atom    5 type  1   force =     0.00000329   -0.00000409    0.00007959
     atom    6 type  1   force =     0.00000000    0.00000000   -0.00029814
     atom    7 type  1   force =    -0.00000020   -0.00000885    0.00038175
     atom    8 type  1   force =     0.00000000    0.00000000   -0.00016021
     atom    9 type  1   force =    -0.00000329    0.00000409    0.00007959
     atom   10 type  1   force =     0.00000000    0.00000000   -0.00029793
     atom   11 type  1   force =     0.00000020    0.00000885    0.00038175
     atom   12 type  1   force =     0.00000000    0.00000000   -0.00016573
     atom   13 type  1   force =    -0.00000195   -0.00000418    0.00007772
     atom   14 type  1   force =     0.00000000    0.00000000   -0.00029603
     atom   15 type  1   force =     0.00000111   -0.00000913    0.00037481
     atom   16 type  1   force =     0.00000000    0.00000000   -0.00015689
     The non-local contrib.  to forces
     atom    1 type  1   force =     0.00000236    0.00000817   -0.02884656
     atom    2 type  1   force =     0.00000000    0.00000000    0.00192265
     atom    3 type  1   force =     0.00000056    0.00001217   -0.00181727
     atom    4 type  1   force =     0.00000000    0.00000000    0.02872640
     atom    5 type  1   force =     0.00000108   -0.00000462   -0.02884772
     atom    6 type  1   force =     0.00000000    0.00000000    0.00191723
     atom    7 type  1   force =    -0.00000017   -0.00001324   -0.00181440
     atom    8 type  1   force =     0.00000000    0.00000000    0.02873451
     atom    9 type  1   force =    -0.00000108    0.00000462   -0.02884772
     atom   10 type  1   force =     0.00000000    0.00000000    0.00192385
     atom   11 type  1   force =     0.00000017    0.00001324   -0.00181440
     atom   12 type  1   force =     0.00000000    0.00000000    0.02872458
     atom   13 type  1   force =    -0.00000236   -0.00000817   -0.02884656
     atom   14 type  1   force =     0.00000000    0.00000000    0.00191993
     atom   15 type  1   force =    -0.00000056   -0.00001217   -0.00181727
     atom   16 type  1   force =     0.00000000    0.00000000    0.02873255
     The ionic contribution  to forces
     atom    1 type  1   force =     0.00005212    0.00012661   -8.97391366
     atom    2 type  1   force =    -0.00000006   -0.00000006   -3.00454521
     atom    3 type  1   force =    -0.00001463    0.00024461    3.00528938
     atom    4 type  1   force =    -0.00000004   -0.00000011    8.97326252
     atom    5 type  1   force =     0.00006332   -0.00010303   -8.97404837
     atom    6 type  1   force =     0.00000006    0.00000007   -3.00460969
     atom    7 type  1   force =    -0.00000689   -0.00024446    3.00508747
     atom    8 type  1   force =     0.00000004    0.00000011    8.97334046
     atom    9 type  1   force =    -0.00006335    0.00010302   -8.97404818
     atom   10 type  1   force =    -0.00000001   -0.00000005   -3.00446573
     atom   11 type  1   force =     0.00000685    0.00024444    3.00508755
     atom   12 type  1   force =    -0.00000001   -0.00000011    8.97332175
     atom   13 type  1   force =    -0.00005215   -0.00012663   -8.97391382
     atom   14 type  1   force =     0.00000010    0.00000009   -3.00441350
     atom   15 type  1   force =     0.00001458   -0.00024463    3.00528929
     atom   16 type  1   force =     0.00000007    0.00000013    8.97327974
     The local contribution  to forces
     atom    1 type  1   force =     0.00000328   -0.00013976    8.88245065
     atom    2 type  1   force =     0.00005792   -0.00002187    2.96060603
     atom    3 type  1   force =     0.00006880   -0.00025639   -2.96140604
     atom    4 type  1   force =     0.00005735   -0.00002303   -8.88172793
     atom    5 type  1   force =    -0.00000533    0.00009162    8.88259272
     atom    6 type  1   force =     0.00010289   -0.00001644    2.96066999
     atom    7 type  1   force =     0.00006267    0.00023822   -2.96120229
     atom    8 type  1   force =     0.00010408   -0.00001409   -8.88181230
     atom    9 type  1   force =     0.00011656   -0.00011268    8.88258909
     atom   10 type  1   force =     0.00005868   -0.00002129    2.96052084
     atom   11 type  1   force =     0.00004911   -0.00025756   -2.96120350
     atom   12 type  1   force =     0.00005811   -0.00002245   -8.88179133
     atom   13 type  1   force =     0.00010795    0.00011870    8.88245246
     atom   14 type  1   force =     0.00010365   -0.00001586    2.96047534
     atom   15 type  1   force =     0.00004298    0.00023705   -2.96140423
     atom   16 type  1   force =     0.00010484   -0.00001292   -8.88174469
     The core correction contribution to forces
     atom    1 type  1   force =     0.00000000    0.00000000    0.00000000
     atom    2 type  1   force =     0.00000000    0.00000000    0.00000000
     atom    3 type  1   force =     0.00000000    0.00000000    0.00000000
     atom    4 type  1   force =     0.00000000    0.00000000    0.00000000
     atom    5 type  1   force =     0.00000000    0.00000000    0.00000000
     atom    6 type  1   force =     0.00000000    0.00000000    0.00000000
     atom    7 type  1   force =     0.00000000    0.00000000    0.00000000
     atom    8 type  1   force =     0.00000000    0.00000000    0.00000000
     atom    9 type  1   force =     0.00000000    0.00000000    0.00000000
     atom   10 type  1   force =     0.00000000    0.00000000    0.00000000
     atom   11 type  1   force =     0.00000000    0.00000000    0.00000000
     atom   12 type  1   force =     0.00000000    0.00000000    0.00000000
     atom   13 type  1   force =     0.00000000    0.00000000    0.00000000
     atom   14 type  1   force =     0.00000000    0.00000000    0.00000000
     atom   15 type  1   force =     0.00000000    0.00000000    0.00000000
     atom   16 type  1   force =     0.00000000    0.00000000    0.00000000
     The Hubbard contrib.    to forces
     atom    1 type  1   force =     0.00000000    0.00000000    0.00000000
     atom    2 type  1   force =     0.00000000    0.00000000    0.00000000
     atom    3 type  1   force =     0.00000000    0.00000000    0.00000000
     atom    4 type  1   force =     0.00000000    0.00000000    0.00000000
     atom    5 type  1   force =     0.00000000    0.00000000    0.00000000
     atom    6 type  1   force =     0.00000000    0.00000000    0.00000000
     atom    7 type  1   force =     0.00000000    0.00000000    0.00000000
     atom    8 type  1   force =     0.00000000    0.00000000    0.00000000
     atom    9 type  1   force =     0.00000000    0.00000000    0.00000000
     atom   10 type  1   force =     0.00000000    0.00000000    0.00000000
     atom   11 type  1   force =     0.00000000    0.00000000    0.00000000
     atom   12 type  1   force =     0.00000000    0.00000000    0.00000000
     atom   13 type  1   force =     0.00000000    0.00000000    0.00000000
     atom   14 type  1   force =     0.00000000    0.00000000    0.00000000
     atom   15 type  1   force =     0.00000000    0.00000000    0.00000000
     atom   16 type  1   force =     0.00000000    0.00000000    0.00000000
     The SCF correction term to forces
     atom    1 type  1   force =    -0.00000000   -0.00000002    0.00000040
     atom    2 type  1   force =    -0.00000000    0.00000000   -0.00000038
     atom    3 type  1   force =     0.00000000   -0.00000002    0.00000047
     atom    4 type  1   force =    -0.00000000   -0.00000000   -0.00000005
     atom    5 type  1   force =    -0.00000000    0.00000001    0.00000039
     atom    6 type  1   force =    -0.00000000    0.00000000   -0.00000037
     atom    7 type  1   force =    -0.00000000    0.00000002    0.00000046
     atom    8 type  1   force =     0.00000000   -0.00000000   -0.00000005
     atom    9 type  1   force =     0.00000000   -0.00000001    0.00000039
     atom   10 type  1   force =     0.00000000   -0.00000000   -0.00000036
     atom   11 type  1   force =     0.00000000   -0.00000002    0.00000046
     atom   12 type  1   force =    -0.00000000    0.00000000   -0.00000001
     atom   13 type  1   force =     0.00000000    0.00000002    0.00000040
     atom   14 type  1   force =    -0.00000000    0.00000000   -0.00000038
     atom   15 type  1   force =    -0.00000000    0.00000002    0.00000047
     atom   16 type  1   force =    -0.00000000    0.00000000   -0.00000005

     Total force =     0.001026     Total SCF correction =     0.000001
     Energy error            =      1.5E-06 Ry
     Gradient error          =      3.8E-04 Ry/Bohr

     bfgs converged in  16 scf cycles and  15 bfgs steps
     (criteria: energy <  1.0E-05 Ry, force <  3.9E-04 Ry/Bohr)

     End of BFGS Geometry Optimization

     Final energy             =    -240.6429082845 Ry

     File ./Li/Lithium.bfgs deleted, as requested
Begin final coordinates

ATOMIC_POSITIONS (angstrom)
Li               0.9915911254        1.4023470677       19.8975607552
Li               1.9832882700        2.8047934300       22.3318426620
Li               0.9916459949        1.4022902630       24.7966019904
Li               1.9832882800        2.8047934500       27.2340391009
Li              -0.0000242266        4.2072538215       19.8974875730
Li               0.9916443500        5.6095863900       22.3318590590
Li               0.0000240633        4.2072891162       24.7964901910
Li               0.9916443300        5.6095863500       27.2340294797
Li               3.9666008466        1.4023326485       19.8974876330
Li               4.9582206700        2.8047934200       22.3318912240
Li               3.9665525467        1.4022973238       24.7964902110
Li               4.9582206800        2.8047934400       27.2340929970
Li               2.9749854946        4.2072394023       19.8975607252
Li               3.9665767500        5.6095863800       22.3319232112
Li               2.9749306151        4.2072961770       24.7966019604
Li               3.9665767300        5.6095863300       27.2339852839
End final coordinates

     Writing all to output data dir ./Li/Lithium.save/ :
     XML data file

     General routines

     Parallel routines

     PAW routines

     Environ routines

   This run was terminated on:  13:19:27   3Jan2025

   JOB DONE.