     Program PWSCF v.7.4 starts on  6Jan2025 at 22: 0:46
        Git branch: develop
        Last git commit: e877ff360aceba4b8d76ffc2fb1c70545fc5dd57
        Last git commit date: Sat Jan 4 12:56:15 2025 +0000
        Last git commit subject: Merge branch 'orthoU' into 'develop'

     Reading input from espresso.pwi
Warning: card &CELL ignored
Warning: card    PRESS_CONV_THR   = 0.1 ignored
Warning: card    CELL_DOFREE      = 'ALL' ignored
Warning: card / ignored
Warning: card &FCP ignored
Warning: card / ignored
Warning: card &RISM ignored
Warning: card / ignored

     Current dimensions of program PWSCF are:
     Max number of different atomic species (ntypx) = 10
     Max number of k-points (npk) =  40000
     Max angular momentum in pseudopotentials (lmaxx) =  4

     IMPORTANT: XC functional enforced from input :
     Exchange-correlation= PBE
                           (   1   4   3   4   0   0   0)
     Any further DFT definition will be discarded
     Please, verify this is what you really want

     Reading input from environ.in:
     * using ionic solvent mode
     * setting boundary derivatives method to SSCS default
     * setting electrolyte-boundary derivatives method to SSCS default

Environ Warning (1001): card EOF ignored

     K-points division:     npool     =       2
     R & G space division:  proc/nbgrp/npool/nimage =     180
     Subspace diagonalization in iterative solution of the eigenvalue problem:
     a serial algorithm will be used

     Using Slab Decomposition

     bravais-lattice index     =           12
     lattice parameter (alat)  =      12.9830  a.u.
     unit-cell volume          =   12574.0527 (a.u.)^3
     number of atoms/cell      =           20
     number of atomic types    =            1
     number of electrons       =        60.00
     number of Kohn-Sham states=           45
     kinetic-energy cutoff     =      80.0000  Ry
     charge density cutoff     =     800.0000  Ry
     scf convergence threshold =      1.0E-06
     mixing beta               =       0.2000
     number of iterations used =            8  local-TF  mixing
     energy convergence thresh.=      1.0E-05
     force convergence thresh. =      3.9E-04
     Exchange-correlation= PBE
                           (   1   4   3   4   0   0   0)
     nstep                     =          999

                                  Environ Setup Summary

          O. Andreussi, I. Dabo and N. Marzari, J. Chem. Phys. 136, 064102 (2012)
          F. Nattino, M. Truscott, N. Marzari, and O. Andreussi, J. Chem. Phys. 150, 041722 (2019)

     in publications or presentations arising from this work.

     Parameters

     compensation onset threshold      =               0.1000E+00
     static permittivity               =                    89.90
     surface tension in input (dyn/cm) =                    37.30
     surface tension in internal units =               0.4792E-04

     Solvent Boundary

     solvent mode                      =                    ionic
     derivatives method                =                   lowmem
     electrolyte derivatives method    =                   lowmem
     numerical core for derivatives    =                      fft
     switching function adopted        =                     SCCS
     density limit for vacuum region   =               0.5000E-02
     density limit for bulk solvent    =               0.1000E-03
     soft-sphere radius mode           =                    bondi
     soft-sphere softness              =                     0.50
     alpha                             =                     1.32

     Electrostatic Setup

     electrostatic problem to solve    =                    modpb
     numerical solver adopted          =                   newton
     type of auxiliary density adopted =                     none
     numerical core for poisson        =                      fft
     adopting a nested solver scheme
     inner solver                      =                       cg
     inner core                        =                      fft
     type of pbc corrections           =                parabolic
     numerical core for corrections    =                      1da

     >>>>> Grand-Canonical SCF is activated <<<<<
     Initial Total Charge  =     0.000000 e
     Target Fermi Energy   =    -4.404000 eV
     Thr. of Fermi Energy  =     0.001000 eV
     Wave-shift of Kerker  =     0.400000 bohr^-1
     Wave-shift of Hartree =     1.500000 bohr^-1
     Mixing Rate of Fermi  =     0.050000

     celldm(1)=  12.983009  celldm(2)=   0.829156  celldm(3)=   7.267908
     celldm(4)=  -0.301511  celldm(5)=   0.000000  celldm(6)=   0.000000

     crystal axes: (cart. coord. in units of alat)
               a(1) = (   1.000000   0.000000   0.000000 )
               a(2) = (  -0.250000   0.790569   0.000000 )
               a(3) = (   0.000000   0.000000   7.267908 )

     reciprocal axes: (cart. coord. in units 2 pi/alat)
               b(1) = (  1.000000  0.316228  0.000000 )
               b(2) = (  0.000000  1.264912  0.000000 )
               b(3) = (  0.000000  0.000000  0.137591 )

     PseudoPot. # 1 for Li read from file:
     /home/mmm1182/Repos/Pseudopotentials/pslibrary/Li.pbe-sl-kjpaw_psl.1.0.0.UPF
     MD5 check sum: f40bb4162937df3f7c561f1969c76545
     Pseudo is Projector augmented-wave, Zval =  3.0
     Generated using 'atomic' code by A. Dal Corso  v.7.3.1
     Shape of augmentation charge: PSQ
     Using radial grid of 1017 points,  4 beta functions with:
                l(1) =   0
                l(2) =   0
                l(3) =   1
                l(4) =   1
     Q(r) pseudized with 0 coefficients

     atomic species   valence    mass     pseudopotential
     Li                3.00     6.94000     Li( 1.00)

     No symmetry found

                                    s                        frac. trans.

      isym =  1     identity

 cryst.   s( 1) = (     1          0          0      )
                  (     0          1          0      )
                  (     0          0          1      )

 cart.    s( 1) = (  1.0000000 -0.0000000  0.0000000 )
                  (  0.0000000  1.0000000  0.0000000 )
                  (  0.0000000  0.0000000  1.0000000 )

     point group C_1 (1)
     there are  1 classes
     the character table:

       E
A      1.00

     the symmetry operations in each class and the name of the first element:

     E        1
          identity

   Cartesian axes

     site n.     atom                  positions (alat units)
         1        Li     tau(   1) = (   0.2502053   0.3100448   3.0822741  )
         2        Li     tau(   2) = (   0.0002049   0.6539377   3.2339483  )
         3        Li     tau(   3) = (   0.0001586   0.1627168   3.3994374  )
         4        Li     tau(   4) = (   0.2500513   0.4787392   3.5464788  )
         5        Li     tau(   5) = (   0.2499417  -0.0058406   3.7193286  )
         6        Li     tau(   6) = (  -0.0001551   0.3106912   3.8658532  )
         7        Li     tau(   7) = (   0.2497955   0.6106079   4.0346621  )
         8        Li     tau(   8) = (   0.2497982   0.1656697   4.1858496  )
         9        Li     tau(   9) = (  -0.0002359   0.5133590   4.4012227  )
        10        Li     tau(  10) = (   0.5002345  -0.0376574   2.8704843  )
        11        Li     tau(  11) = (   0.7502040   0.3100527   3.0822810  )
        12        Li     tau(  12) = (   0.5001994   0.6539403   3.2339514  )
        13        Li     tau(  13) = (   0.5001521   0.1627237   3.3994421  )
        14        Li     tau(  14) = (   0.7500572   0.4787357   3.5464810  )
        15        Li     tau(  15) = (   0.7499453  -0.0058417   3.7193356  )
        16        Li     tau(  16) = (   0.4998446   0.3106900   3.8658551  )
        17        Li     tau(  17) = (   0.7497998   0.6106077   4.0346618  )
        18        Li     tau(  18) = (   0.7497999   0.1656782   4.1858505  )
        19        Li     tau(  19) = (   0.4997663   0.5133619   4.4012121  )
        20        Li     tau(  20) = (   1.0002327  -0.0376606   2.8704651  )

   Crystallographic axes

     site n.     atom                  positions (cryst. coord.)
         1        Li     tau(   1) = (  0.3482502  0.3921794  0.4240937  )
         2        Li     tau(   2) = (  0.2069983  0.8271735  0.4449627  )
         3        Li     tau(   3) = (  0.0516142  0.2058224  0.4677326  )
         4        Li     tau(   4) = (  0.4014420  0.6055628  0.4879642  )
         5        Li     tau(   5) = (  0.2480947 -0.0073879  0.5117468  )
         6        Li     tau(   6) = (  0.0980942  0.3929970  0.5319073  )
         7        Li     tau(   7) = (  0.4428868  0.7723651  0.5551339  )
         8        Li     tau(   8) = (  0.3021876  0.2095575  0.5759360  )
         9        Li     tau(   9) = (  0.1621025  0.6493538  0.6055694  )
        10        Li     tau(  10) = (  0.4883262 -0.0476333  0.3949533  )
        11        Li     tau(  11) = (  0.8482513  0.3921893  0.4240947  )
        12        Li     tau(  12) = (  0.7069936  0.8271767  0.4449632  )
        13        Li     tau(  13) = (  0.5516099  0.2058311  0.4677332  )
        14        Li     tau(  14) = (  0.9014468  0.6055584  0.4879645  )
        15        Li     tau(  15) = (  0.7480980 -0.0073892  0.5117478  )
        16        Li     tau(  16) = (  0.5980934  0.3929955  0.5319075  )
        17        Li     tau(  17) = (  0.9428911  0.7723649  0.5551339  )
        18        Li     tau(  18) = (  0.8021920  0.2095683  0.5759361  )
        19        Li     tau(  19) = (  0.6621057  0.6493575  0.6055679  )
        20        Li     tau(  20) = (  0.9883233 -0.0476374  0.3949507  )

     number of k points=    62  Marzari-Vanderbilt smearing, width (Ry)=  0.0100
                       cart. coord. in units 2pi/alat
        k(    1) = (   0.0000000   0.0000000   0.0000000), wk =   0.0166667
        k(    2) = (   0.0000000   0.1054093   0.0000000), wk =   0.0333333
        k(    3) = (   0.0000000   0.2108186   0.0000000), wk =   0.0333333
        k(    4) = (   0.0000000   0.3162279   0.0000000), wk =   0.0333333
        k(    5) = (   0.0000000   0.4216372   0.0000000), wk =   0.0333333
        k(    6) = (   0.0000000   0.5270466   0.0000000), wk =   0.0333333
        k(    7) = (   0.0000000  -0.6324559   0.0000000), wk =   0.0166667
        k(    8) = (   0.1000000   0.0316228   0.0000000), wk =   0.0333333
        k(    9) = (   0.1000000   0.1370321   0.0000000), wk =   0.0333333
        k(   10) = (   0.1000000   0.2424414   0.0000000), wk =   0.0333333
        k(   11) = (   0.1000000   0.3478507   0.0000000), wk =   0.0333333
        k(   12) = (   0.1000000   0.4532600   0.0000000), wk =   0.0333333
        k(   13) = (   0.1000000   0.5586693   0.0000000), wk =   0.0333333
        k(   14) = (   0.1000000  -0.6008331   0.0000000), wk =   0.0333333
        k(   15) = (   0.1000000  -0.4954238   0.0000000), wk =   0.0333333
        k(   16) = (   0.1000000  -0.3900144   0.0000000), wk =   0.0333333
        k(   17) = (   0.1000000  -0.2846051   0.0000000), wk =   0.0333333
        k(   18) = (   0.1000000  -0.1791958   0.0000000), wk =   0.0333333
[...]
    -5.6570  -5.6570  -5.1810  -5.1809  -4.9089  -4.9089  -4.2731  -4.2731
    -3.6439  -3.6439  -2.7120  -2.7120  -2.5485  -2.5485  -2.1402  -2.1402
    -1.8044  -1.8044  -0.8123  -0.8123  -0.4818

     occupation numbers
     1.0000   1.0000   1.0000   1.0000   1.0000   1.0000   1.0000   1.0000
     1.0000   1.0000   1.0000   1.0000   1.0000   1.0000   1.0000   1.0000
     1.0000   1.0000   1.0000   1.0000   1.0000   1.0000   1.0000   1.0000
     1.0000   1.0000   1.0000   1.0000   1.0000   1.0000   0.0337   0.0337
     0.0000   0.0000   0.0000   0.0000   0.0000   0.0000   0.0000   0.0000
     0.0000   0.0000   0.0000   0.0000   0.0000

     the Fermi energy is    -4.4040 ev

!    total energy              =    -300.86649216 Ry
     total all-electron energy =      -300.866655 Ry
     estimated scf accuracy    <          7.4E-13 Ry

!    total charge of GC-SCF    =       2.11779687 e
     smearing contrib. (-TS)   =       0.00021102 Ry
     internal energy E=F+TS    =    -300.86670318 Ry

     The total energy is F=E-TS. E is the sum of the following terms:
     one-electron contribution =   -3251.97450897 Ry
     hartree contribution      =    1589.28127540 Ry
     xc contribution           =     -70.77192065 Ry
     ewald contribution        =    1493.66556886 Ry
     one-center paw contrib.   =       1.76902980 Ry
      -> PAW hartree energy AE =       7.29492992 Ry
      -> PAW hartree energy PS =      -7.07158569 Ry
      -> PAW xc energy AE      =      -3.45968293 Ry
      -> PAW xc energy PS      =       3.32480821 Ry
      -> total E_H with PAW    =    1589.50461963 Ry
      -> total E_XC with PAW   =     -70.90679537 Ry
     pot.stat. contrib. (-muN) =      -0.68550550 Ry
     electrostatic embedding   =      -1.14295458 Ry
     cavitation energy         =       0.01739753 Ry
     electrolyte free energy   =      -0.02047712 Ry
     correction to one-el term =     -61.00460795 Ry

     WARNING: you are using the parabolic pbc correction;
              the potential shift above must be added to
              band and Fermi energies.

     convergence has been achieved in  14 iterations
     The dielectric solvent contribution to forces
     atom    1 type  1   force =    -0.00000130    0.00880348   -0.08019068
     atom    2 type  1   force =     0.00000035   -0.00535522   -0.05936998
     atom    3 type  1   force =    -0.00000004    0.00129892   -0.03452812
     atom    4 type  1   force =    -0.00000009   -0.00026561   -0.01494233
     atom    5 type  1   force =     0.00000004    0.00026479    0.01430151
     atom    6 type  1   force =     0.00000008   -0.00129850    0.03393887
     atom    7 type  1   force =    -0.00000023    0.00531886    0.05870267
     atom    8 type  1   force =     0.00000180   -0.00873482    0.07959037
     atom    9 type  1   force =    -0.00000017    0.00456906   -0.00750635
     atom   10 type  1   force =     0.00000113   -0.00459473    0.00751910
     atom   11 type  1   force =    -0.00000245    0.00880298   -0.08019161
     atom   12 type  1   force =     0.00000042   -0.00535515   -0.05937050
     atom   13 type  1   force =    -0.00000004    0.00129898   -0.03452877
     atom   14 type  1   force =    -0.00000000   -0.00026552   -0.01494209
     atom   15 type  1   force =     0.00000006    0.00026477    0.01430181
     atom   16 type  1   force =    -0.00000000   -0.00129846    0.03393857
     atom   17 type  1   force =    -0.00000053    0.00531863    0.05870254
     atom   18 type  1   force =     0.00000186   -0.00873434    0.07959113
     atom   19 type  1   force =     0.00000092    0.00456896   -0.00750043
     atom   20 type  1   force =    -0.00000193   -0.00459538    0.00752458

     Forces acting on atoms (cartesian axes, Ry/au):

     atom    1 type  1   force =    -0.00000258    0.00004100   -0.00031623
     atom    2 type  1   force =    -0.00000160   -0.00009945   -0.00014835
     atom    3 type  1   force =    -0.00000148   -0.00014842   -0.00006167
     atom    4 type  1   force =    -0.00000159    0.00002583   -0.00005953
     atom    5 type  1   force =     0.00000005   -0.00003866    0.00005446
     atom    6 type  1   force =     0.00000476    0.00014321    0.00004201
     atom    7 type  1   force =     0.00000148    0.00010445    0.00017162
     atom    8 type  1   force =     0.00000254   -0.00001094    0.00025576
     atom    9 type  1   force =     0.00000302   -0.00000916    0.00031649
     atom   10 type  1   force =    -0.00000278   -0.00000861   -0.00025515
     atom   11 type  1   force =    -0.00000233    0.00004166   -0.00031796
     atom   12 type  1   force =    -0.00000203   -0.00009966   -0.00015073
     atom   13 type  1   force =    -0.00000471   -0.00015180   -0.00006154
     atom   14 type  1   force =     0.00000099    0.00002898   -0.00005940
     atom   15 type  1   force =     0.00000060   -0.00003835    0.00005450
     atom   16 type  1   force =     0.00000149    0.00014131    0.00004361
     atom   17 type  1   force =     0.00000207    0.00010739    0.00017235
     atom   18 type  1   force =     0.00000242   -0.00001114    0.00025769
     atom   19 type  1   force =     0.00000347   -0.00000881    0.00031672
     atom   20 type  1   force =    -0.00000376   -0.00000883   -0.00025465
     The non-local contrib.  to forces
     atom    1 type  1   force =     0.00002912    0.01469377   -0.05651761
     atom    2 type  1   force =    -0.00001185   -0.00159023   -0.00008223
     atom    3 type  1   force =     0.00002460    0.00044887   -0.00614318
     atom    4 type  1   force =     0.00003418   -0.00127314   -0.00396778
     atom    5 type  1   force =    -0.00003613    0.00127546    0.00390753
     atom    6 type  1   force =    -0.00002014   -0.00042731    0.00617045
     atom    7 type  1   force =     0.00001178    0.00151043   -0.00003186
     atom    8 type  1   force =    -0.00002904   -0.01458113    0.05663946
     atom    9 type  1   force =    -0.00000548    0.00756973    0.08565090
     atom   10 type  1   force =     0.00000749   -0.00758476   -0.08547581
     atom   11 type  1   force =     0.00002892    0.01469324   -0.05651973
     atom   12 type  1   force =    -0.00001169   -0.00158906   -0.00008667
     atom   13 type  1   force =     0.00002056    0.00044789   -0.00614217
     atom   14 type  1   force =     0.00003762   -0.00127272   -0.00396684
     atom   15 type  1   force =    -0.00003551    0.00127450    0.00390812
     atom   16 type  1   force =    -0.00002503   -0.00042754    0.00617142
     atom   17 type  1   force =     0.00001206    0.00151096   -0.00003138
     atom   18 type  1   force =    -0.00002918   -0.01458100    0.05664046
     atom   19 type  1   force =    -0.00000265    0.00756945    0.08565179
     atom   20 type  1   force =     0.00000068   -0.00758568   -0.08547434
     The ionic contribution  to forces
     atom    1 type  1   force =     0.00000830    0.12007874   -8.94872502
     atom    2 type  1   force =    -0.00001646   -0.11074687   -6.74234578
     atom    3 type  1   force =    -0.00005711    0.01615899   -3.75945545
     atom    4 type  1   force =    -0.00002760    0.01134351   -1.55742572
     atom    5 type  1   force =    -0.00000787   -0.01138943    1.55485881
     atom    6 type  1   force =     0.00014436   -0.01629917    3.76257017
     atom    7 type  1   force =     0.00001433    0.11008765    6.73658028
     atom    8 type  1   force =    -0.00000591   -0.11868932    8.95371234
     atom    9 type  1   force =     0.00003091    0.04224175   11.23582037
     atom   10 type  1   force =    -0.00001350   -0.04278590  -11.23555711
     atom   11 type  1   force =     0.00000769    0.12007535   -8.94870482
     atom   12 type  1   force =    -0.00002848   -0.11074572   -6.74231236
     atom   13 type  1   force =    -0.00014490    0.01611318   -3.75950879
     atom   14 type  1   force =     0.00004270    0.01139500   -1.55739353
     atom   15 type  1   force =    -0.00000795   -0.01139832    1.55489504
     atom   16 type  1   force =     0.00005777   -0.01632358    3.76256213
     atom   17 type  1   force =     0.00003021    0.11012511    6.73656942
     atom   18 type  1   force =    -0.00000668   -0.11868943    8.95367778
     atom   19 type  1   force =     0.00005363    0.04224411   11.23577599
     atom   20 type  1   force =    -0.00007344   -0.04279563  -11.23559377
     The local contribution  to forces
     atom    1 type  1   force =    -0.00003874   -0.14353328    9.08512289
     atom    2 type  1   force =     0.00002638    0.11759119    6.80169051
     atom    3 type  1   force =     0.00003103   -0.01805562    3.80006871
     atom    4 type  1   force =    -0.00000807   -0.00977843    1.57627592
     atom    5 type  1   force =     0.00004398    0.00981091   -1.57301187
     atom    6 type  1   force =    -0.00011958    0.01816942   -3.80263928
     atom    7 type  1   force =    -0.00002443   -0.11681018   -6.79511741
     atom    8 type  1   force =     0.00003578    0.14199316   -9.08969286
     atom    9 type  1   force =    -0.00002229   -0.05438521  -11.31364465
     atom   10 type  1   force =     0.00000208    0.05494938   11.31326081
     atom   11 type  1   force =    -0.00003656   -0.14352825    9.08510399
     atom   12 type  1   force =     0.00003778    0.11758859    6.80165968
     atom   13 type  1   force =     0.00011972   -0.01801226    3.80012184
     atom   14 type  1   force =    -0.00007938   -0.00982732    1.57624267
     atom   15 type  1   force =     0.00004397    0.00982109   -1.57304896
     atom   16 type  1   force =    -0.00003122    0.01819215   -3.80263031
     atom   17 type  1   force =    -0.00003973   -0.11684500   -6.79510620
     atom   18 type  1   force =     0.00003647    0.14199246   -9.08965809
     atom   19 type  1   force =    -0.00004839   -0.05438683  -11.31360690
     atom   20 type  1   force =     0.00007071    0.05496044   11.31329099
     The core correction contribution to forces
     atom    1 type  1   force =     0.00000000    0.00000000    0.00000000
     atom    2 type  1   force =     0.00000000    0.00000000    0.00000000
     atom    3 type  1   force =     0.00000000    0.00000000    0.00000000
     atom    4 type  1   force =     0.00000000    0.00000000    0.00000000
     atom    5 type  1   force =     0.00000000    0.00000000    0.00000000
     atom    6 type  1   force =     0.00000000    0.00000000    0.00000000
     atom    7 type  1   force =     0.00000000    0.00000000    0.00000000
     atom    8 type  1   force =     0.00000000    0.00000000    0.00000000
     atom    9 type  1   force =     0.00000000    0.00000000    0.00000000
     atom   10 type  1   force =     0.00000000    0.00000000    0.00000000
     atom   11 type  1   force =     0.00000000    0.00000000    0.00000000
     atom   12 type  1   force =     0.00000000    0.00000000    0.00000000
     atom   13 type  1   force =     0.00000000    0.00000000    0.00000000
     atom   14 type  1   force =     0.00000000    0.00000000    0.00000000
     atom   15 type  1   force =     0.00000000    0.00000000    0.00000000
     atom   16 type  1   force =     0.00000000    0.00000000    0.00000000
     atom   17 type  1   force =     0.00000000    0.00000000    0.00000000
     atom   18 type  1   force =     0.00000000    0.00000000    0.00000000
     atom   19 type  1   force =     0.00000000    0.00000000    0.00000000
     atom   20 type  1   force =     0.00000000    0.00000000    0.00000000
     The Hubbard contrib.    to forces
     atom    1 type  1   force =     0.00000000    0.00000000    0.00000000
     atom    2 type  1   force =     0.00000000    0.00000000    0.00000000
     atom    3 type  1   force =     0.00000000    0.00000000    0.00000000
     atom    4 type  1   force =     0.00000000    0.00000000    0.00000000
     atom    5 type  1   force =     0.00000000    0.00000000    0.00000000
     atom    6 type  1   force =     0.00000000    0.00000000    0.00000000
     atom    7 type  1   force =     0.00000000    0.00000000    0.00000000
     atom    8 type  1   force =     0.00000000    0.00000000    0.00000000
     atom    9 type  1   force =     0.00000000    0.00000000    0.00000000
     atom   10 type  1   force =     0.00000000    0.00000000    0.00000000
     atom   11 type  1   force =     0.00000000    0.00000000    0.00000000
     atom   12 type  1   force =     0.00000000    0.00000000    0.00000000
     atom   13 type  1   force =     0.00000000    0.00000000    0.00000000
     atom   14 type  1   force =     0.00000000    0.00000000    0.00000000
     atom   15 type  1   force =     0.00000000    0.00000000    0.00000000
     atom   16 type  1   force =     0.00000000    0.00000000    0.00000000
     atom   17 type  1   force =     0.00000000    0.00000000    0.00000000
     atom   18 type  1   force =     0.00000000    0.00000000    0.00000000
     atom   19 type  1   force =     0.00000000    0.00000000    0.00000000
     atom   20 type  1   force =     0.00000000    0.00000000    0.00000000
     The SCF correction term to forces
     atom    1 type  1   force =     0.00000002   -0.00000128   -0.00000500
     atom    2 type  1   force =    -0.00000003    0.00000211   -0.00004006
     atom    3 type  1   force =     0.00000003    0.00000085   -0.00000282
     atom    4 type  1   force =    -0.00000002   -0.00000007    0.00000120
     atom    5 type  1   force =     0.00000002    0.00000002   -0.00000071
     atom    6 type  1   force =     0.00000003   -0.00000083    0.00000262
     atom    7 type  1   force =     0.00000002   -0.00000189    0.00003875
     atom    8 type  1   force =    -0.00000009    0.00000160    0.00000725
     atom    9 type  1   force =     0.00000004   -0.00000408   -0.00000296
     atom   10 type  1   force =     0.00000001    0.00000781   -0.00000132
     atom   11 type  1   force =     0.00000007   -0.00000124   -0.00000497
     atom   12 type  1   force =    -0.00000007    0.00000209   -0.00004007
     atom   13 type  1   force =    -0.00000006    0.00000082   -0.00000284
     atom   14 type  1   force =     0.00000004   -0.00000005    0.00000120
     atom   15 type  1   force =     0.00000001    0.00000002   -0.00000070
     atom   16 type  1   force =    -0.00000004   -0.00000084    0.00000262
     atom   17 type  1   force =     0.00000005   -0.00000188    0.00003878
     atom   18 type  1   force =    -0.00000006    0.00000159    0.00000723
     atom   19 type  1   force =    -0.00000005   -0.00000409   -0.00000291
     atom   20 type  1   force =     0.00000021    0.00000786   -0.00000130

     Total force =     0.000963     Total SCF correction =     0.000081
     Energy error            =      4.5E-06 Ry
     Gradient error          =      3.2E-04 Ry/Bohr

     bfgs converged in  41 scf cycles and  40 bfgs steps
     (criteria: energy <  1.0E-05 Ry, force <  3.9E-04 Ry/Bohr)

     End of BFGS Geometry Optimization

     Final energy             =    -300.8664921585 Ry

     File ./Li/Lithium.bfgs deleted, as requested
Begin final coordinates

ATOMIC_POSITIONS (angstrom)
Li               1.7183194396        2.0905917472       21.1957069219
Li               0.0006858066        4.5257234254       22.1651414780
Li               0.0006272093        1.1112198940       23.4089773632
Li               1.7177003314        3.3170787053       24.3316003197
Li               1.7174649016       -0.0570188957       25.6026279665
Li              -0.0006620736        2.1477669206       26.5272235294
Li               1.7168701973        4.1649640952       27.7659920626
Li               1.7168075582        1.1660295053       28.7394610006
Li              -0.0011044709        3.5301267794       30.3850902562
Li               3.4362593133       -0.2706025273       19.5422062308
Li               5.1535046337        2.0905805686       21.1957397269
Li               3.4358495123        4.5256979027       22.1651841141
Li               3.4358209830        1.1112930132       23.4089578124
Li               5.1528632615        3.3170358103       24.3316140568
Li               5.1525969497       -0.0570402170       25.6026382602
Li               3.4345209817        2.1478209957       26.5272108648
Li               5.1520644008        4.1649192261       27.7659791610
Li               5.1519775668        1.1660038184       28.7394215840
Li               3.4340414185        3.5301039224       30.3850299337
Li               6.8714506825       -0.2706169150       19.5421522418
End final coordinates

     Writing all to output data dir ./Li/Lithium.save/ :
     XML data file

     General routines

     Parallel routines

     PAW routines

     Environ routines

   This run was terminated on:   1:15: 9   7Jan2025

   JOB DONE.