     Program PWSCF v.7.4 starts on  3Jan2025 at 12: 0: 7

     Reading input from espresso.pwi
Warning: card &CELL ignored
Warning: card    PRESS_CONV_THR   = 0.1 ignored
Warning: card    CELL_DOFREE      = 'ALL' ignored
Warning: card / ignored
Warning: card &FCP ignored
Warning: card / ignored
Warning: card &RISM ignored
Warning: card / ignored

     Current dimensions of program PWSCF are:
     Max number of different atomic species (ntypx) = 10
     Max number of k-points (npk) =  40000
     Max angular momentum in pseudopotentials (lmaxx) =  4

     IMPORTANT: XC functional enforced from input :
     Exchange-correlation= PBE
                           (   1   4   3   4   0   0   0)
     Any further DFT definition will be discarded
     Please, verify this is what you really want

     Reading input from environ.in:
     * using ionic solvent mode
     * setting boundary derivatives method to SSCS default
     * setting electrolyte-boundary derivatives method to SSCS default

Environ Warning (1001): card EOF ignored

     K-points division:     npool     =       2
     R & G space division:  proc/nbgrp/npool/nimage =     256
     Subspace diagonalization in iterative solution of the eigenvalue problem:
     a serial algorithm will be used

     Using Slab Decomposition

     bravais-lattice index     =            8
     lattice parameter (alat)  =      18.3607  a.u.
     unit-cell volume          =   20684.8735 (a.u.)^3
     number of atoms/cell      =           44
     number of atomic types    =            1
     number of electrons       =       132.00
     number of Kohn-Sham states=           99
     kinetic-energy cutoff     =      80.0000  Ry
     charge density cutoff     =     800.0000  Ry
     scf convergence threshold =      1.0E-06
     mixing beta               =       0.2000
     number of iterations used =            8  local-TF  mixing
     energy convergence thresh.=      1.0E-05
     force convergence thresh. =      3.9E-04
     Exchange-correlation= PBE
                           (   1   4   3   4   0   0   0)
     nstep                     =          999

                                  Environ Setup Summary

          O. Andreussi, I. Dabo and N. Marzari, J. Chem. Phys. 136, 064102 (2012)
          F. Nattino, M. Truscott, N. Marzari, and O. Andreussi, J. Chem. Phys. 150, 041722 (2019)

     in publications or presentations arising from this work.

     Parameters

     compensation onset threshold      =               0.1000E+00
     static permittivity               =                    89.90
     surface tension in input (dyn/cm) =                    37.30
     surface tension in internal units =               0.4792E-04

     Solvent Boundary

     solvent mode                      =                    ionic
     derivatives method                =                   lowmem
     electrolyte derivatives method    =                   lowmem
     numerical core for derivatives    =                      fft
     switching function adopted        =                     SCCS
     density limit for vacuum region   =               0.5000E-02
     density limit for bulk solvent    =               0.1000E-03
     soft-sphere radius mode           =                    bondi
     soft-sphere softness              =                     0.50
     alpha                             =                     1.32

     Electrostatic Setup

     electrostatic problem to solve    =                    modpb
     numerical solver adopted          =                   newton
     type of auxiliary density adopted =                     none
     numerical core for poisson        =                      fft
     adopting a nested solver scheme
     inner solver                      =                       cg
     inner core                        =                      fft
     type of pbc corrections           =                parabolic
     numerical core for corrections    =                      1da

     >>>>> Grand-Canonical SCF is activated <<<<<
     Initial Total Charge  =     0.000000 e
     Target Fermi Energy   =    -2.404000 eV
     Thr. of Fermi Energy  =     0.001000 eV
     Wave-shift of Kerker  =     0.400000 bohr^-1
     Wave-shift of Hartree =     1.500000 bohr^-1
     Mixing Rate of Fermi  =     0.050000

     celldm(1)=  18.360747  celldm(2)=   0.586302  celldm(3)=   5.699811
     celldm(4)=   0.000000  celldm(5)=   0.000000  celldm(6)=   0.000000

     crystal axes: (cart. coord. in units of alat)
               a(1) = (   1.000000   0.000000   0.000000 )
               a(2) = (   0.000000   0.586302   0.000000 )
               a(3) = (   0.000000   0.000000   5.699811 )

     reciprocal axes: (cart. coord. in units 2 pi/alat)
               b(1) = (  1.000000  0.000000  0.000000 )
               b(2) = (  0.000000  1.705606  0.000000 )
               b(3) = (  0.000000  0.000000  0.175444 )

     PseudoPot. # 1 for Li read from file:
     /work/e89/e89/ba3g18/Repos/Pseudopotentials/Pslibrary/Li.pbe-sl-kjpaw_psl.1.0.0.UPF
     MD5 check sum: 3f4d2cafebb47c6c3aa8ed472e6f074d
     Pseudo is Projector augmented-wave, Zval =  3.0
     Generated using 'atomic' code by A. Dal Corso  v.7.4
     Shape of augmentation charge: PSQ
     Using radial grid of 1017 points,  4 beta functions with:
                l(1) =   0
                l(2) =   0
                l(3) =   1
                l(4) =   1
     Q(r) pseudized with 0 coefficients

     atomic species   valence    mass     pseudopotential
     Li                3.00     6.94000     Li( 1.00)

      2 Sym. Ops. (no inversion) found

                                    s                        frac. trans.

      isym =  1     identity

 cryst.   s( 1) = (     1          0          0      )
                  (     0          1          0      )
                  (     0          0          1      )

 cart.    s( 1) = (  1.0000000  0.0000000  0.0000000 )
                  (  0.0000000  1.0000000  0.0000000 )
                  (  0.0000000  0.0000000  1.0000000 )

      isym =  2     inv. 180 deg rotation - cart. axis [1,0,0]

 cryst.   s( 2) = (    -1          0          0      )
                  (     0          1          0      )
                  (     0          0          1      )

 cart.    s( 2) = ( -1.0000000  0.0000000  0.0000000 )
                  (  0.0000000  1.0000000  0.0000000 )
                  (  0.0000000  0.0000000  1.0000000 )

     point group C_s (m)
     there are  2 classes
     the character table:

       E     s
A'     1.00  1.00
A''    1.00 -1.00

     the symmetry operations in each class and the name of the first element:

     E        1
          identity
     s        2
          inv. 180 deg rotation - cart. axis [1,0,0]

   Cartesian axes

     site n.     atom                  positions (alat units)
         1        Li     tau(   1) = (   0.5000000   0.5618724   3.6507372  )
         2        Li     tau(   2) = (   0.2499936   0.4507442   2.0490878  )
         3        Li     tau(   3) = (   0.2500015   0.1052602   2.2448329  )
         4        Li     tau(   4) = (   0.5000000   0.2252523   2.1126330  )
         5        Li     tau(   5) = (  -0.0000000   0.5103250   2.2559235  )
         6        Li     tau(   6) = (   0.5000000   0.1954453   2.4247784  )
         7        Li     tau(   7) = (   0.2500023   0.3234104   2.6569176  )
         8        Li     tau(   8) = (   0.2499992   0.5872216   2.8351222  )
         9        Li     tau(   9) = (   0.2500015   0.3788434   2.3503586  )
        10        Li     tau(  10) = (   0.2499985   0.0476525   2.5362266  )
        11        Li     tau(  11) = (  -0.0000000   0.4699670   2.5632914  )
        12        Li     tau(  12) = (   0.5000000   0.1498795   2.7345249  )
        13        Li     tau(  13) = (   0.5000000   0.4254853   2.8646647  )
        14        Li     tau(  14) = (   0.5000000   0.1029886   3.0428934  )
        15        Li     tau(  15) = (   0.2499967   0.5427349   3.1365276  )
        16        Li     tau(  16) = (   0.2500004   0.2309547   3.2750291  )
        17        Li     tau(  17) = (   0.2500022   0.2765192   2.9652846  )
        18        Li     tau(  18) = (  -0.0000000   0.3787443   3.1636120  )
        19        Li     tau(  19) = (   0.5000000   0.0475613   3.3494621  )
        20        Li     tau(  20) = (   0.5000000   0.3211676   3.4549041  )
        21        Li     tau(  21) = (   0.2499812   0.5023788   3.4438921  )
        22        Li     tau(  22) = (   0.2500852   0.2011526   3.5871733  )
        23        Li     tau(  23) = (   1.0000000   0.5620440   3.6507028  )
        24        Li     tau(  24) = (   0.7500064   0.4507442   2.0490878  )
        25        Li     tau(  25) = (   0.7499985   0.1052602   2.2448329  )
        26        Li     tau(  26) = (   1.0000000   0.2252477   2.1126364  )
        27        Li     tau(  27) = (   0.5000000   0.5103250   2.2559080  )
        28        Li     tau(  28) = (   1.0000000   0.1954494   2.4247787  )
        29        Li     tau(  29) = (   0.7499977   0.3234104   2.6569176  )
        30        Li     tau(  30) = (   0.7500008   0.5872216   2.8351222  )
        31        Li     tau(  31) = (   0.7499985   0.3788434   2.3503586  )
        32        Li     tau(  32) = (   0.7500015   0.0476525   2.5362266  )
        33        Li     tau(  33) = (   0.5000000   0.4699701   2.5632692  )
        34        Li     tau(  34) = (   1.0000000   0.1498848   2.7345216  )
        35        Li     tau(  35) = (   1.0000000   0.4254778   2.8647058  )
        36        Li     tau(  36) = (   1.0000000   0.1029929   3.0428864  )
        37        Li     tau(  37) = (   0.7500033   0.5427349   3.1365276  )
        38        Li     tau(  38) = (   0.7499996   0.2309547   3.2750291  )
        39        Li     tau(  39) = (   0.7499978   0.2765192   2.9652846  )
        40        Li     tau(  40) = (   0.5000000   0.3787534   3.1635492  )
        41        Li     tau(  41) = (   1.0000000   0.0475542   3.3494358  )
        42        Li     tau(  42) = (   1.0000000   0.3211147   3.4550445  )
        43        Li     tau(  43) = (   0.7500188   0.5023788   3.4438921  )
        44        Li     tau(  44) = (   0.7499148   0.2011526   3.5871733  )

   Crystallographic axes

     site n.     atom                  positions (cryst. coord.)
         1        Li     tau(   1) = (  0.5000000  0.9583328  0.6405015  )
         2        Li     tau(   2) = (  0.2499936  0.7687919  0.3595010  )
         3        Li     tau(   3) = (  0.2500015  0.1795324  0.3938434  )
         4        Li     tau(   4) = (  0.5000000  0.3841916  0.3706497  )
         5        Li     tau(   5) = (  0.0000000  0.8704132  0.3957892  )
         6        Li     tau(   6) = (  0.5000000  0.3333527  0.4254138  )
         7        Li     tau(   7) = (  0.2500023  0.5516106  0.4661414  )
         8        Li     tau(   8) = (  0.2499992  1.0015685  0.4974064  )
         9        Li     tau(   9) = (  0.2500015  0.6461575  0.4123573  )
        10        Li     tau(  10) = (  0.2499985  0.0812764  0.4449668  )
        11        Li     tau(  11) = (  0.0000000  0.8015784  0.4497152  )
[...]
     atom    8 type  1   force =     0.00038227   -0.00698973    0.43430505
     atom    9 type  1   force =     0.00036112   -0.00085989   10.29363005
     atom   10 type  1   force =     0.00032235   -0.00115042    6.86048269
     atom   11 type  1   force =     0.00000000    0.00447635    6.03033535
     atom   12 type  1   force =     0.00000136   -0.01330418    2.58096415
     atom   13 type  1   force =     0.00000136    0.00693947   -0.43373615
     atom   14 type  1   force =     0.00000136   -0.01136230   -3.87128326
     atom   15 type  1   force =     0.00022773   -0.00426572   -6.03192480
     atom   16 type  1   force =     0.00057602    0.00527641   -9.02624037
     atom   17 type  1   force =     0.00050395    0.01343708   -2.58242208
     atom   18 type  1   force =     0.00000000    0.00170533   -6.86041205
     atom   19 type  1   force =     0.00000136    0.00063788  -10.29324735
     atom   20 type  1   force =     0.00000136   -0.02103347  -13.27618950
     atom   21 type  1   force =     0.00007600    0.04397025  -12.65754910
     atom   22 type  1   force =     0.00014987   -0.10343372  -15.36483298
     atom   23 type  1   force =     0.00000274    0.07258658  -16.08688917
     atom   24 type  1   force =    -0.00011262   -0.07295299   16.08813363
     atom   25 type  1   force =    -0.00016044    0.02141133   13.27969288
     atom   26 type  1   force =     0.00000272    0.10354599   15.36420300
     atom   27 type  1   force =     0.00000135   -0.04416837   12.65714906
     atom   28 type  1   force =     0.00000272   -0.00534894    9.02483512
     atom   29 type  1   force =    -0.00052238    0.01132387    3.87095380
     atom   30 type  1   force =    -0.00037955   -0.00698973    0.43430505
     atom   31 type  1   force =    -0.00035840   -0.00085989   10.29363005
     atom   32 type  1   force =    -0.00031963   -0.00115042    6.86048269
     atom   33 type  1   force =     0.00000136    0.00422001    6.03111478
     atom   34 type  1   force =     0.00000272   -0.01356184    2.58118222
     atom   35 type  1   force =     0.00000272    0.00717740   -0.43502434
     atom   36 type  1   force =     0.00000272   -0.01171111   -3.87114961
     atom   37 type  1   force =    -0.00022501   -0.00426572   -6.03192480
     atom   38 type  1   force =    -0.00057331    0.00527641   -9.02624037
     atom   39 type  1   force =    -0.00050123    0.01343708   -2.58242208
     atom   40 type  1   force =     0.00000136    0.00117390   -6.85849822
     atom   41 type  1   force =     0.00000272    0.00004172  -10.29282710
     atom   42 type  1   force =     0.00000272   -0.02073483  -13.27910771
     atom   43 type  1   force =    -0.00007329    0.04397025  -12.65754910
     atom   44 type  1   force =    -0.00014715   -0.10343372  -15.36483298
     The core correction contribution to forces
     atom    1 type  1   force =     0.00000000    0.00000000    0.00000000
     atom    2 type  1   force =     0.00000000    0.00000000    0.00000000
     atom    3 type  1   force =     0.00000000    0.00000000    0.00000000
     atom    4 type  1   force =     0.00000000    0.00000000    0.00000000
     atom    5 type  1   force =     0.00000000    0.00000000    0.00000000
     atom    6 type  1   force =     0.00000000    0.00000000    0.00000000
     atom    7 type  1   force =     0.00000000    0.00000000    0.00000000
     atom    8 type  1   force =     0.00000000    0.00000000    0.00000000
     atom    9 type  1   force =     0.00000000    0.00000000    0.00000000
     atom   10 type  1   force =     0.00000000    0.00000000    0.00000000
     atom   11 type  1   force =     0.00000000    0.00000000    0.00000000
     atom   12 type  1   force =     0.00000000    0.00000000    0.00000000
     atom   13 type  1   force =     0.00000000    0.00000000    0.00000000
     atom   14 type  1   force =     0.00000000    0.00000000    0.00000000
     atom   15 type  1   force =     0.00000000    0.00000000    0.00000000
     atom   16 type  1   force =     0.00000000    0.00000000    0.00000000
     atom   17 type  1   force =     0.00000000    0.00000000    0.00000000
     atom   18 type  1   force =     0.00000000    0.00000000    0.00000000
     atom   19 type  1   force =     0.00000000    0.00000000    0.00000000
     atom   20 type  1   force =     0.00000000    0.00000000    0.00000000
     atom   21 type  1   force =     0.00000000    0.00000000    0.00000000
     atom   22 type  1   force =     0.00000000    0.00000000    0.00000000
     atom   23 type  1   force =     0.00000000    0.00000000    0.00000000
     atom   24 type  1   force =     0.00000000    0.00000000    0.00000000
     atom   25 type  1   force =     0.00000000    0.00000000    0.00000000
     atom   26 type  1   force =     0.00000000    0.00000000    0.00000000
     atom   27 type  1   force =     0.00000000    0.00000000    0.00000000
     atom   28 type  1   force =     0.00000000    0.00000000    0.00000000
     atom   29 type  1   force =     0.00000000    0.00000000    0.00000000
     atom   30 type  1   force =     0.00000000    0.00000000    0.00000000
     atom   31 type  1   force =     0.00000000    0.00000000    0.00000000
     atom   32 type  1   force =     0.00000000    0.00000000    0.00000000
     atom   33 type  1   force =     0.00000000    0.00000000    0.00000000
     atom   34 type  1   force =     0.00000000    0.00000000    0.00000000
     atom   35 type  1   force =     0.00000000    0.00000000    0.00000000
     atom   36 type  1   force =     0.00000000    0.00000000    0.00000000
     atom   37 type  1   force =     0.00000000    0.00000000    0.00000000
     atom   38 type  1   force =     0.00000000    0.00000000    0.00000000
     atom   39 type  1   force =     0.00000000    0.00000000    0.00000000
     atom   40 type  1   force =     0.00000000    0.00000000    0.00000000
     atom   41 type  1   force =     0.00000000    0.00000000    0.00000000
     atom   42 type  1   force =     0.00000000    0.00000000    0.00000000
     atom   43 type  1   force =     0.00000000    0.00000000    0.00000000
     atom   44 type  1   force =     0.00000000    0.00000000    0.00000000
     The Hubbard contrib.    to forces
     atom    1 type  1   force =     0.00000000    0.00000000    0.00000000
     atom    2 type  1   force =     0.00000000    0.00000000    0.00000000
     atom    3 type  1   force =     0.00000000    0.00000000    0.00000000
     atom    4 type  1   force =     0.00000000    0.00000000    0.00000000
     atom    5 type  1   force =     0.00000000    0.00000000    0.00000000
     atom    6 type  1   force =     0.00000000    0.00000000    0.00000000
     atom    7 type  1   force =     0.00000000    0.00000000    0.00000000
     atom    8 type  1   force =     0.00000000    0.00000000    0.00000000
     atom    9 type  1   force =     0.00000000    0.00000000    0.00000000
     atom   10 type  1   force =     0.00000000    0.00000000    0.00000000
     atom   11 type  1   force =     0.00000000    0.00000000    0.00000000
     atom   12 type  1   force =     0.00000000    0.00000000    0.00000000
     atom   13 type  1   force =     0.00000000    0.00000000    0.00000000
     atom   14 type  1   force =     0.00000000    0.00000000    0.00000000
     atom   15 type  1   force =     0.00000000    0.00000000    0.00000000
     atom   16 type  1   force =     0.00000000    0.00000000    0.00000000
     atom   17 type  1   force =     0.00000000    0.00000000    0.00000000
     atom   18 type  1   force =     0.00000000    0.00000000    0.00000000
     atom   19 type  1   force =     0.00000000    0.00000000    0.00000000
     atom   20 type  1   force =     0.00000000    0.00000000    0.00000000
     atom   21 type  1   force =     0.00000000    0.00000000    0.00000000
     atom   22 type  1   force =     0.00000000    0.00000000    0.00000000
     atom   23 type  1   force =     0.00000000    0.00000000    0.00000000
     atom   24 type  1   force =     0.00000000    0.00000000    0.00000000
     atom   25 type  1   force =     0.00000000    0.00000000    0.00000000
     atom   26 type  1   force =     0.00000000    0.00000000    0.00000000
     atom   27 type  1   force =     0.00000000    0.00000000    0.00000000
     atom   28 type  1   force =     0.00000000    0.00000000    0.00000000
     atom   29 type  1   force =     0.00000000    0.00000000    0.00000000
     atom   30 type  1   force =     0.00000000    0.00000000    0.00000000
     atom   31 type  1   force =     0.00000000    0.00000000    0.00000000
     atom   32 type  1   force =     0.00000000    0.00000000    0.00000000
     atom   33 type  1   force =     0.00000000    0.00000000    0.00000000
     atom   34 type  1   force =     0.00000000    0.00000000    0.00000000
     atom   35 type  1   force =     0.00000000    0.00000000    0.00000000
     atom   36 type  1   force =     0.00000000    0.00000000    0.00000000
     atom   37 type  1   force =     0.00000000    0.00000000    0.00000000
     atom   38 type  1   force =     0.00000000    0.00000000    0.00000000
     atom   39 type  1   force =     0.00000000    0.00000000    0.00000000
     atom   40 type  1   force =     0.00000000    0.00000000    0.00000000
     atom   41 type  1   force =     0.00000000    0.00000000    0.00000000
     atom   42 type  1   force =     0.00000000    0.00000000    0.00000000
     atom   43 type  1   force =     0.00000000    0.00000000    0.00000000
     atom   44 type  1   force =     0.00000000    0.00000000    0.00000000
     The SCF correction term to forces
     atom    1 type  1   force =    -0.00000000   -0.00000007    0.00000163
     atom    2 type  1   force =     0.00000004    0.00000019   -0.00000168
     atom    3 type  1   force =     0.00000005    0.00000006    0.00000031
     atom    4 type  1   force =    -0.00000000   -0.00000004   -0.00000109
     atom    5 type  1   force =    -0.00000000   -0.00000008   -0.00000044
     atom    6 type  1   force =     0.00000000   -0.00000002   -0.00000001
     atom    7 type  1   force =     0.00000010   -0.00000001   -0.00000044
     atom    8 type  1   force =     0.00000008    0.00000004   -0.00000054
     atom    9 type  1   force =     0.00000009   -0.00000021   -0.00000006
     atom   10 type  1   force =     0.00000007    0.00000012   -0.00000050
     atom   11 type  1   force =    -0.00000000    0.00000004   -0.00000044
     atom   12 type  1   force =    -0.00000000    0.00000002   -0.00000052
     atom   13 type  1   force =    -0.00000000   -0.00000004   -0.00000074
     atom   14 type  1   force =     0.00000000    0.00000000   -0.00000066
     atom   15 type  1   force =     0.00000008   -0.00000005   -0.00000040
     atom   16 type  1   force =     0.00000007    0.00000002   -0.00000042
     atom   17 type  1   force =     0.00000008   -0.00000002   -0.00000064
     atom   18 type  1   force =    -0.00000000   -0.00000008   -0.00000019
     atom   19 type  1   force =    -0.00000000    0.00000020   -0.00000023
     atom   20 type  1   force =    -0.00000000   -0.00000005   -0.00000041
     atom   21 type  1   force =     0.00000004    0.00000009    0.00000032
     atom   22 type  1   force =     0.00000001    0.00000001    0.00000126
     atom   23 type  1   force =     0.00000000   -0.00000006    0.00000183
     atom   24 type  1   force =    -0.00000004    0.00000019   -0.00000168
     atom   25 type  1   force =    -0.00000005    0.00000006    0.00000031
     atom   26 type  1   force =     0.00000000   -0.00000005   -0.00000113
     atom   27 type  1   force =     0.00000000   -0.00000006   -0.00000037
     atom   28 type  1   force =     0.00000000   -0.00000003   -0.00000006
     atom   29 type  1   force =    -0.00000010   -0.00000001   -0.00000044
     atom   30 type  1   force =    -0.00000008    0.00000004   -0.00000054
     atom   31 type  1   force =    -0.00000009   -0.00000021   -0.00000006
     atom   32 type  1   force =    -0.00000007    0.00000012   -0.00000050
     atom   33 type  1   force =     0.00000000    0.00000005   -0.00000042
     atom   34 type  1   force =    -0.00000000    0.00000003   -0.00000053
     atom   35 type  1   force =     0.00000000   -0.00000004   -0.00000074
     atom   36 type  1   force =    -0.00000000    0.00000002   -0.00000062
     atom   37 type  1   force =    -0.00000008   -0.00000005   -0.00000040
     atom   38 type  1   force =    -0.00000007    0.00000002   -0.00000042
     atom   39 type  1   force =    -0.00000008   -0.00000002   -0.00000064
     atom   40 type  1   force =    -0.00000000   -0.00000008   -0.00000021
     atom   41 type  1   force =     0.00000000    0.00000020   -0.00000017
     atom   42 type  1   force =    -0.00000000   -0.00000004   -0.00000031
     atom   43 type  1   force =    -0.00000004    0.00000009    0.00000032
     atom   44 type  1   force =    -0.00000001    0.00000001    0.00000126

     Total force =     0.001840     Total SCF correction =     0.000005
     Energy error            =      7.4E-06 Ry
     Gradient error          =      3.8E-04 Ry/Bohr

     bfgs converged in  35 scf cycles and  34 bfgs steps
     (criteria: energy <  1.0E-05 Ry, force <  3.9E-04 Ry/Bohr)

     End of BFGS Geometry Optimization

     Final energy             =    -661.6959578690 Ry

     File ./Li/Lithium.bfgs deleted, as requested
Begin final coordinates

ATOMIC_POSITIONS (angstrom)
Li               4.8580444204        5.6551423041       35.2800782676
Li               2.4290439654        4.1832815656       20.1003993286
Li               2.4290286421        1.0318793809       21.6869019492
Li               4.8580444204        2.2684460506       20.6181977465
Li               0.0000000000        4.9871301642       21.9519524085
Li               4.8580444204        1.9191570879       23.5710693588
Li               2.4292057803        3.1432639579       25.9262667183
Li               2.4290755828        5.7354915214       27.4920212905
Li               2.4291636393        3.6317797380       22.9811216812
Li               2.4290696211        0.5010558365       24.5622164431
Li               0.0000000000        4.5645475724       24.9471379851
Li               4.8580444204        1.4620880023       26.5124148001
Li               4.8580444204        4.1037715135       27.8867229465
Li               4.8580444204        0.9989733326       29.4529336697
Li               2.4290005884        5.2753320957       30.4328205851
Li               2.4292640121        2.2242664614       31.8092261015
Li               2.4292248504        2.6808077885       28.8673737279
Li               0.0000000000        3.6416669260       30.8169353631
Li               4.8580444204        0.5103394408       32.3983203172
Li               4.8580444204        3.1109741589       33.6918959029
Li               2.4287526557        4.8530610309       33.4287516407
Li               2.4297168944        1.8754926185       34.7635508072
Li               9.7160888407        5.6566380731       35.2798654780
Li               7.2870448753        4.1832815656       20.1003993286
Li               7.2870601986        1.0318793809       21.6869019492
Li               9.7160888407        2.2683642773       20.6178685995
Li               4.8580444204        4.9871957726       21.9518340311
Li               9.7160888407        1.9190774910       23.5708163751
Li               7.2868830605        3.1432639579       25.9262667183
Li               7.2870132580        5.7354915214       27.4920212905
Li               7.2869252015        3.6317797380       22.9811216812
Li               7.2870192196        0.5010558365       24.5622164431
Li               4.8580444204        4.5645625182       24.9468267670
Li               9.7160888407        1.4620802545       26.5122842641
Li               9.7160888407        4.1037772845       27.8873866801
Li               9.7160888407        0.9991444076       29.4528971846
Li               7.2870882523        5.2753320957       30.4328205851
Li               7.2868248287        2.2242664614       31.8092261015
Li               7.2868639903        2.6808077885       28.8673737279
Li               4.8580444204        3.6414646233       30.8160581540
Li               9.7160888407        0.5105288888       32.3981889771
Li               9.7160888407        3.1110007321       33.6934436483
Li               7.2873361851        4.8530610309       33.4287516407
Li               7.2863719463        1.8754926185       34.7635508072
End final coordinates

     Writing all to output data dir ./Li/Lithium.save/ :
     XML data file

     General routines

     Parallel routines

     PAW routines

     Environ routines

   This run was terminated on:  21:15:39   3Jan2025

   JOB DONE.