     Program PWSCF v.7.4 starts on  5Jan2025 at 11:52: 3

     Reading input from espresso.pwi
Warning: card &CELL ignored
Warning: card    PRESS_CONV_THR   = 0.1 ignored
Warning: card    CELL_DOFREE      = 'ALL' ignored
Warning: card / ignored
Warning: card &FCP ignored
Warning: card / ignored
Warning: card &RISM ignored
Warning: card / ignored

     Current dimensions of program PWSCF are:
     Max number of different atomic species (ntypx) = 10
     Max number of k-points (npk) =  40000
     Max angular momentum in pseudopotentials (lmaxx) =  4

     IMPORTANT: XC functional enforced from input :
     Exchange-correlation= PBE
                           (   1   4   3   4   0   0   0)
     Any further DFT definition will be discarded
     Please, verify this is what you really want

     Reading input from environ.in:
     * using ionic solvent mode
     * setting boundary derivatives method to SSCS default
     * setting electrolyte-boundary derivatives method to SSCS default

Environ Warning (1001): card EOF ignored

     Found identity + (  0.5000  0.0000 -0.0000) symmetry
     This is a supercell, fractional translations are disabled

     K-points division:     npool     =       2
     R & G space division:  proc/nbgrp/npool/nimage =     256
     Subspace diagonalization in iterative solution of the eigenvalue problem:
     a serial algorithm will be used

     Using Slab Decomposition

     bravais-lattice index     =            8
     lattice parameter (alat)  =      12.9830  a.u.
     unit-cell volume          =   29886.2289 (a.u.)^3
     number of atoms/cell      =           52
     number of atomic types    =            1
     number of electrons       =       156.00
     number of Kohn-Sham states=          117
     kinetic-energy cutoff     =      80.0000  Ry
     charge density cutoff     =     800.0000  Ry
     scf convergence threshold =      1.0E-14
     mixing beta               =       0.2000
     number of iterations used =            8  local-TF  mixing
     Exchange-correlation= PBE
                           (   1   4   3   4   0   0   0)

                                  Environ Setup Summary

          O. Andreussi, I. Dabo and N. Marzari, J. Chem. Phys. 136, 064102 (2012)
          F. Nattino, M. Truscott, N. Marzari, and O. Andreussi, J. Chem. Phys. 150, 041722 (2019)

     in publications or presentations arising from this work.

     Parameters

     compensation onset threshold      =               0.1000E+00
     static permittivity               =                    89.90
     surface tension in input (dyn/cm) =                    37.30
     surface tension in internal units =               0.4792E-04

     Solvent Boundary

     solvent mode                      =                    ionic
     derivatives method                =                   lowmem
     electrolyte derivatives method    =                   lowmem
     numerical core for derivatives    =                      fft
     switching function adopted        =                     SCCS
     density limit for vacuum region   =               0.5000E-02
     density limit for bulk solvent    =               0.1000E-03
     soft-sphere radius mode           =                    bondi
     soft-sphere softness              =                     0.50
     alpha                             =                     1.32

     Electrostatic Setup

     electrostatic problem to solve    =                    modpb
     numerical solver adopted          =                   newton
     type of auxiliary density adopted =                     none
     numerical core for poisson        =                      fft
     adopting a nested solver scheme
     inner solver                      =                       cg
     inner core                        =                      fft
     type of pbc corrections           =                parabolic
     numerical core for corrections    =                      1da

     >>>>> Grand-Canonical SCF is activated <<<<<
     Initial Total Charge  =     0.000000 e
     Target Fermi Energy   =    -2.404000 eV
     Thr. of Fermi Energy  =     0.001000 eV
     Wave-shift of Kerker  =     0.400000 bohr^-1
     Wave-shift of Hartree =     1.500000 bohr^-1
     Mixing Rate of Fermi  =     0.050000

     celldm(1)=  12.983009  celldm(2)=   1.802776  celldm(3)=   7.575360
     celldm(4)=   0.000000  celldm(5)=   0.000000  celldm(6)=   0.000000

     crystal axes: (cart. coord. in units of alat)
               a(1) = (   1.000000   0.000000   0.000000 )
               a(2) = (   0.000000   1.802776   0.000000 )
               a(3) = (   0.000000   0.000000   7.575360 )

     reciprocal axes: (cart. coord. in units 2 pi/alat)
               b(1) = (  1.000000  0.000000  0.000000 )
               b(2) = (  0.000000  0.554700  0.000000 )
               b(3) = (  0.000000  0.000000  0.132007 )

     PseudoPot. # 1 for Li read from file:
     /work/e89/e89/ba3g18/Repos/Pseudopotentials/Pslibrary/Li.pbe-sl-kjpaw_psl.1.0.0.UPF
     MD5 check sum: 3f4d2cafebb47c6c3aa8ed472e6f074d
     Pseudo is Projector augmented-wave, Zval =  3.0
     Generated using 'atomic' code by A. Dal Corso  v.7.4
     Shape of augmentation charge: PSQ
     Using radial grid of 1017 points,  4 beta functions with:
                l(1) =   0
                l(2) =   0
                l(3) =   1
                l(4) =   1
     Q(r) pseudized with 0 coefficients

     atomic species   valence    mass     pseudopotential
     Li                3.00     6.94000     Li( 1.00)

      2 Sym. Ops. (no inversion) found

                                    s                        frac. trans.

      isym =  1     identity

 cryst.   s( 1) = (     1          0          0      )
                  (     0          1          0      )
                  (     0          0          1      )

 cart.    s( 1) = (  1.0000000  0.0000000  0.0000000 )
                  (  0.0000000  1.0000000  0.0000000 )
                  (  0.0000000  0.0000000  1.0000000 )

      isym =  2     inv. 180 deg rotation - cart. axis [1,0,0]

 cryst.   s( 2) = (    -1          0          0      )
                  (     0          1          0      )
                  (     0          0          1      )

 cart.    s( 2) = ( -1.0000000  0.0000000  0.0000000 )
                  (  0.0000000  1.0000000  0.0000000 )
                  (  0.0000000  0.0000000  1.0000000 )

     point group C_s (m)
     there are  2 classes
     the character table:

       E     s
A'     1.00  1.00
A''    1.00 -1.00

     the symmetry operations in each class and the name of the first element:

     E        1
          identity
     s        2
          inv. 180 deg rotation - cart. axis [1,0,0]

   Cartesian axes

     site n.     atom                  positions (alat units)
         1        Li     tau(   1) = (   0.0000000   1.1494254   4.5160816  )
         2        Li     tau(   2) = (   0.0000000   1.5375347   4.2259835  )
         3        Li     tau(   3) = (   0.0000000   0.4297843   4.3935245  )
         4        Li     tau(   4) = (   0.0000000   0.8385801   4.1036785  )
         5        Li     tau(   5) = (   0.0000000   1.2483673   3.8218723  )
         6        Li     tau(   6) = (   0.0000000   1.6611459   3.5302612  )
         7        Li     tau(   7) = (   0.0000000   0.1442458   3.9605488  )
         8        Li     tau(   8) = (   0.0000000   0.5493533   3.6943157  )
         9        Li     tau(   9) = (   0.0000000   0.9626536   3.4048081  )
        10        Li     tau(  10) = (   0.0000000   1.3625395   3.1249565  )
        11        Li     tau(  11) = (   0.0000000   0.2665323   3.2726037  )
        12        Li     tau(  12) = (   0.0000000   0.6364813   3.0071943  )
        13        Li     tau(  13) = (   0.0000000   0.0706103   4.6548832  )
        14        Li     tau(  14) = (   0.2500004   1.1877555   4.1706495  )
        15        Li     tau(  15) = (   0.2499993   1.6002106   3.8800964  )
        16        Li     tau(  16) = (   0.2500019   0.4892033   4.0441231  )
        17        Li     tau(  17) = (   0.2500010   0.9013979   3.7537708  )
        18        Li     tau(  18) = (   0.2500005   1.3121085   3.4716879  )
        19        Li     tau(  19) = (   0.2500000   1.7195602   3.1821785  )
        20        Li     tau(  20) = (   0.2500004   0.2028123   3.6142726  )
        21        Li     tau(  21) = (   0.2500002   0.6129904   3.3510441  )
        22        Li     tau(  22) = (   0.2500002   1.0006285   3.0583060  )
        23        Li     tau(  23) = (   0.2500001   1.5109205   4.5699302  )
        24        Li     tau(  24) = (   0.2500007   0.2710204   2.9211070  )
        25        Li     tau(  25) = (   0.2500017   0.7880472   4.4489747  )
        26        Li     tau(  26) = (   0.2500006   0.0807839   4.3028545  )
        27        Li     tau(  27) = (   0.5000000   1.1494281   4.5160803  )
        28        Li     tau(  28) = (   0.5000000   1.5375361   4.2259828  )
        29        Li     tau(  29) = (   0.5000000   0.4297825   4.3935219  )
        30        Li     tau(  30) = (   0.5000000   0.8385795   4.1036770  )
        31        Li     tau(  31) = (   0.5000000   1.2483701   3.8218712  )
        32        Li     tau(  32) = (   0.5000000   1.6611492   3.5302639  )
        33        Li     tau(  33) = (   0.5000000   0.1442450   3.9605480  )
        34        Li     tau(  34) = (   0.5000000   0.5493542   3.6943144  )
        35        Li     tau(  35) = (   0.5000000   0.9626501   3.4048059  )
        36        Li     tau(  36) = (   0.5000000   1.3625385   3.1249537  )
        37        Li     tau(  37) = (   0.5000000   0.2665318   3.2726036  )
        38        Li     tau(  38) = (   0.5000000   0.6364813   3.0071973  )
        39        Li     tau(  39) = (   0.5000000   0.0706090   4.6548826  )
        40        Li     tau(  40) = (   0.7499996   1.1877555   4.1706495  )
        41        Li     tau(  41) = (   0.7500007   1.6002106   3.8800964  )
        42        Li     tau(  42) = (   0.7499981   0.4892033   4.0441231  )
        43        Li     tau(  43) = (   0.7499990   0.9013979   3.7537708  )
        44        Li     tau(  44) = (   0.7499995   1.3121085   3.4716879  )
        45        Li     tau(  45) = (   0.7500000   1.7195602   3.1821785  )
        46        Li     tau(  46) = (   0.7499996   0.2028123   3.6142726  )
        47        Li     tau(  47) = (   0.7499998   0.6129904   3.3510441  )
        48        Li     tau(  48) = (   0.7499998   1.0006285   3.0583060  )
        49        Li     tau(  49) = (   0.7499999   1.5109205   4.5699302  )
        50        Li     tau(  50) = (   0.7499993   0.2710204   2.9211070  )
        51        Li     tau(  51) = (   0.7499983   0.7880472   4.4489747  )
        52        Li     tau(  52) = (   0.7499994   0.0807839   4.3028545  )

   Crystallographic axes

     site n.     atom                  positions (cryst. coord.)
         1        Li     tau(   1) = (  0.0000000  0.6375864  0.5961541  )
         2        Li     tau(   2) = (  0.0000000  0.8528706  0.5578591  )
         3        Li     tau(   3) = (  0.0000000  0.2384014  0.5799757  )
[...]
     atom   47 type  1   force =     0.00001790    0.07778194   -6.91860007
     atom   48 type  1   force =     0.00000837    0.45347365  -11.78189217
     atom   49 type  1   force =     0.00000687   -0.28078739   12.21746845
     atom   50 type  1   force =     0.00000620   -0.50597036  -13.01413992
     atom   51 type  1   force =     0.00000878   -0.22624670   11.08796643
     atom   52 type  1   force =     0.00001443    0.28532460    8.24214751
     The local contribution  to forces
     atom    1 type  1   force =     0.00000000    0.45262562  -11.74612078
     atom    2 type  1   force =    -0.00000000    0.06275204   -6.89972402
     atom    3 type  1   force =     0.00000000   -0.33128266  -10.11168045
     atom    4 type  1   force =     0.00000000    0.06481002   -5.22961531
     atom    5 type  1   force =    -0.00000000    0.02148617   -0.49085697
     atom    6 type  1   force =    -0.00000000    0.09412037    4.28193188
     atom    7 type  1   force =     0.00000000   -0.06581447   -2.77793354
     atom    8 type  1   force =     0.00000000   -0.04218630    1.38702260
     atom    9 type  1   force =     0.00000000   -0.17205497    6.16568080
     atom   10 type  1   force =     0.00000000   -0.19331872   11.05731458
     atom   11 type  1   force =     0.00000000    0.25391330    8.20945463
     atom   12 type  1   force =    -0.00000000   -0.26688045   12.19782632
     atom   13 type  1   force =    -0.00000000   -0.51840358  -13.08234448
     atom   14 type  1   force =     0.00000471    0.16715166   -6.15483734
     atom   15 type  1   force =     0.00000816    0.03969676   -1.38333990
     atom   16 type  1   force =     0.00002516   -0.08804155   -4.27890393
     atom   17 type  1   force =     0.00001044   -0.02378231    0.48998328
     atom   18 type  1   force =    -0.00000668   -0.05117808    5.23192830
     atom   19 type  1   force =    -0.00000199    0.33459526   10.10051731
     atom   20 type  1   force =     0.00001454    0.06640314    2.77507709
     atom   21 type  1   force =     0.00001921   -0.07389721    6.89286753
     atom   22 type  1   force =     0.00000975   -0.43619190   11.75914032
     atom   23 type  1   force =     0.00000807    0.26320769  -12.20543884
     atom   24 type  1   force =     0.00000780    0.49406528   13.08895678
     atom   25 type  1   force =     0.00001003    0.21446420  -11.04315883
     atom   26 type  1   force =     0.00001572   -0.26832721   -8.20817266
     atom   27 type  1   force =     0.00000096    0.45262768  -11.74610702
     atom   28 type  1   force =     0.00000096    0.06275731   -6.89971018
     atom   29 type  1   force =     0.00000096   -0.33128310  -10.11165947
     atom   30 type  1   force =     0.00000096    0.06479194   -5.22959328
     atom   31 type  1   force =     0.00000096    0.02149179   -0.49083892
     atom   32 type  1   force =     0.00000096    0.09414014    4.28190368
     atom   33 type  1   force =     0.00000096   -0.06580698   -2.77791772
     atom   34 type  1   force =     0.00000096   -0.04217876    1.38704768
     atom   35 type  1   force =     0.00000096   -0.17208061    6.16570684
     atom   36 type  1   force =     0.00000096   -0.19333034   11.05734004
     atom   37 type  1   force =     0.00000096    0.25391752    8.20945770
     atom   38 type  1   force =     0.00000096   -0.26687811   12.19780539
     atom   39 type  1   force =     0.00000097   -0.51840599  -13.08234773
     atom   40 type  1   force =    -0.00000279    0.16715166   -6.15483734
     atom   41 type  1   force =    -0.00000624    0.03969676   -1.38333990
     atom   42 type  1   force =    -0.00002324   -0.08804155   -4.27890393
     atom   43 type  1   force =    -0.00000852   -0.02378231    0.48998328
     atom   44 type  1   force =     0.00000860   -0.05117808    5.23192830
     atom   45 type  1   force =     0.00000392    0.33459526   10.10051731
     atom   46 type  1   force =    -0.00001262    0.06640314    2.77507709
     atom   47 type  1   force =    -0.00001729   -0.07389721    6.89286753
     atom   48 type  1   force =    -0.00000783   -0.43619190   11.75914032
     atom   49 type  1   force =    -0.00000615    0.26320769  -12.20543884
     atom   50 type  1   force =    -0.00000588    0.49406528   13.08895678
     atom   51 type  1   force =    -0.00000810    0.21446420  -11.04315883
     atom   52 type  1   force =    -0.00001380   -0.26832721   -8.20817266
     The core correction contribution to forces
     atom    1 type  1   force =     0.00000000    0.00000000    0.00000000
     atom    2 type  1   force =     0.00000000    0.00000000    0.00000000
     atom    3 type  1   force =     0.00000000    0.00000000    0.00000000
     atom    4 type  1   force =     0.00000000    0.00000000    0.00000000
     atom    5 type  1   force =     0.00000000    0.00000000    0.00000000
     atom    6 type  1   force =     0.00000000    0.00000000    0.00000000
     atom    7 type  1   force =     0.00000000    0.00000000    0.00000000
     atom    8 type  1   force =     0.00000000    0.00000000    0.00000000
     atom    9 type  1   force =     0.00000000    0.00000000    0.00000000
     atom   10 type  1   force =     0.00000000    0.00000000    0.00000000
     atom   11 type  1   force =     0.00000000    0.00000000    0.00000000
     atom   12 type  1   force =     0.00000000    0.00000000    0.00000000
     atom   13 type  1   force =     0.00000000    0.00000000    0.00000000
     atom   14 type  1   force =     0.00000000    0.00000000    0.00000000
     atom   15 type  1   force =     0.00000000    0.00000000    0.00000000
     atom   16 type  1   force =     0.00000000    0.00000000    0.00000000
     atom   17 type  1   force =     0.00000000    0.00000000    0.00000000
     atom   18 type  1   force =     0.00000000    0.00000000    0.00000000
     atom   19 type  1   force =     0.00000000    0.00000000    0.00000000
     atom   20 type  1   force =     0.00000000    0.00000000    0.00000000
     atom   21 type  1   force =     0.00000000    0.00000000    0.00000000
     atom   22 type  1   force =     0.00000000    0.00000000    0.00000000
     atom   23 type  1   force =     0.00000000    0.00000000    0.00000000
     atom   24 type  1   force =     0.00000000    0.00000000    0.00000000
     atom   25 type  1   force =     0.00000000    0.00000000    0.00000000
     atom   26 type  1   force =     0.00000000    0.00000000    0.00000000
     atom   27 type  1   force =     0.00000000    0.00000000    0.00000000
     atom   28 type  1   force =     0.00000000    0.00000000    0.00000000
     atom   29 type  1   force =     0.00000000    0.00000000    0.00000000
     atom   30 type  1   force =     0.00000000    0.00000000    0.00000000
     atom   31 type  1   force =     0.00000000    0.00000000    0.00000000
     atom   32 type  1   force =     0.00000000    0.00000000    0.00000000
     atom   33 type  1   force =     0.00000000    0.00000000    0.00000000
     atom   34 type  1   force =     0.00000000    0.00000000    0.00000000
     atom   35 type  1   force =     0.00000000    0.00000000    0.00000000
     atom   36 type  1   force =     0.00000000    0.00000000    0.00000000
     atom   37 type  1   force =     0.00000000    0.00000000    0.00000000
     atom   38 type  1   force =     0.00000000    0.00000000    0.00000000
     atom   39 type  1   force =     0.00000000    0.00000000    0.00000000
     atom   40 type  1   force =     0.00000000    0.00000000    0.00000000
     atom   41 type  1   force =     0.00000000    0.00000000    0.00000000
     atom   42 type  1   force =     0.00000000    0.00000000    0.00000000
     atom   43 type  1   force =     0.00000000    0.00000000    0.00000000
     atom   44 type  1   force =     0.00000000    0.00000000    0.00000000
     atom   45 type  1   force =     0.00000000    0.00000000    0.00000000
     atom   46 type  1   force =     0.00000000    0.00000000    0.00000000
     atom   47 type  1   force =     0.00000000    0.00000000    0.00000000
     atom   48 type  1   force =     0.00000000    0.00000000    0.00000000
     atom   49 type  1   force =     0.00000000    0.00000000    0.00000000
     atom   50 type  1   force =     0.00000000    0.00000000    0.00000000
     atom   51 type  1   force =     0.00000000    0.00000000    0.00000000
     atom   52 type  1   force =     0.00000000    0.00000000    0.00000000
     The Hubbard contrib.    to forces
     atom    1 type  1   force =     0.00000000    0.00000000    0.00000000
     atom    2 type  1   force =     0.00000000    0.00000000    0.00000000
     atom    3 type  1   force =     0.00000000    0.00000000    0.00000000
     atom    4 type  1   force =     0.00000000    0.00000000    0.00000000
     atom    5 type  1   force =     0.00000000    0.00000000    0.00000000
     atom    6 type  1   force =     0.00000000    0.00000000    0.00000000
     atom    7 type  1   force =     0.00000000    0.00000000    0.00000000
     atom    8 type  1   force =     0.00000000    0.00000000    0.00000000
     atom    9 type  1   force =     0.00000000    0.00000000    0.00000000
     atom   10 type  1   force =     0.00000000    0.00000000    0.00000000
     atom   11 type  1   force =     0.00000000    0.00000000    0.00000000
     atom   12 type  1   force =     0.00000000    0.00000000    0.00000000
     atom   13 type  1   force =     0.00000000    0.00000000    0.00000000
     atom   14 type  1   force =     0.00000000    0.00000000    0.00000000
     atom   15 type  1   force =     0.00000000    0.00000000    0.00000000
     atom   16 type  1   force =     0.00000000    0.00000000    0.00000000
     atom   17 type  1   force =     0.00000000    0.00000000    0.00000000
     atom   18 type  1   force =     0.00000000    0.00000000    0.00000000
     atom   19 type  1   force =     0.00000000    0.00000000    0.00000000
     atom   20 type  1   force =     0.00000000    0.00000000    0.00000000
     atom   21 type  1   force =     0.00000000    0.00000000    0.00000000
     atom   22 type  1   force =     0.00000000    0.00000000    0.00000000
     atom   23 type  1   force =     0.00000000    0.00000000    0.00000000
     atom   24 type  1   force =     0.00000000    0.00000000    0.00000000
     atom   25 type  1   force =     0.00000000    0.00000000    0.00000000
     atom   26 type  1   force =     0.00000000    0.00000000    0.00000000
     atom   27 type  1   force =     0.00000000    0.00000000    0.00000000
     atom   28 type  1   force =     0.00000000    0.00000000    0.00000000
     atom   29 type  1   force =     0.00000000    0.00000000    0.00000000
     atom   30 type  1   force =     0.00000000    0.00000000    0.00000000
     atom   31 type  1   force =     0.00000000    0.00000000    0.00000000
     atom   32 type  1   force =     0.00000000    0.00000000    0.00000000
     atom   33 type  1   force =     0.00000000    0.00000000    0.00000000
     atom   34 type  1   force =     0.00000000    0.00000000    0.00000000
     atom   35 type  1   force =     0.00000000    0.00000000    0.00000000
     atom   36 type  1   force =     0.00000000    0.00000000    0.00000000
     atom   37 type  1   force =     0.00000000    0.00000000    0.00000000
     atom   38 type  1   force =     0.00000000    0.00000000    0.00000000
     atom   39 type  1   force =     0.00000000    0.00000000    0.00000000
     atom   40 type  1   force =     0.00000000    0.00000000    0.00000000
     atom   41 type  1   force =     0.00000000    0.00000000    0.00000000
     atom   42 type  1   force =     0.00000000    0.00000000    0.00000000
     atom   43 type  1   force =     0.00000000    0.00000000    0.00000000
     atom   44 type  1   force =     0.00000000    0.00000000    0.00000000
     atom   45 type  1   force =     0.00000000    0.00000000    0.00000000
     atom   46 type  1   force =     0.00000000    0.00000000    0.00000000
     atom   47 type  1   force =     0.00000000    0.00000000    0.00000000
     atom   48 type  1   force =     0.00000000    0.00000000    0.00000000
     atom   49 type  1   force =     0.00000000    0.00000000    0.00000000
     atom   50 type  1   force =     0.00000000    0.00000000    0.00000000
     atom   51 type  1   force =     0.00000000    0.00000000    0.00000000
     atom   52 type  1   force =     0.00000000    0.00000000    0.00000000
     The SCF correction term to forces
     atom    1 type  1   force =    -0.00000000    0.00000000    0.00000005
     atom    2 type  1   force =     0.00000000    0.00000000    0.00000000
     atom    3 type  1   force =     0.00000000    0.00000001    0.00000000
     atom    4 type  1   force =    -0.00000000    0.00000000   -0.00000000
     atom    5 type  1   force =     0.00000000    0.00000001   -0.00000000
     atom    6 type  1   force =     0.00000000   -0.00000000    0.00000001
     atom    7 type  1   force =     0.00000000   -0.00000001    0.00000000
     atom    8 type  1   force =    -0.00000000   -0.00000002    0.00000001
     atom    9 type  1   force =    -0.00000000    0.00000001   -0.00000001
     atom   10 type  1   force =    -0.00000000    0.00000000   -0.00000006
     atom   11 type  1   force =    -0.00000000   -0.00000001    0.00000001
     atom   12 type  1   force =     0.00000000    0.00000001   -0.00000003
     atom   13 type  1   force =     0.00000000    0.00000000    0.00000007
     atom   14 type  1   force =     0.00000000    0.00000001    0.00000001
     atom   15 type  1   force =     0.00000000    0.00000001    0.00000001
     atom   16 type  1   force =    -0.00000000   -0.00000001    0.00000001
     atom   17 type  1   force =     0.00000000    0.00000001    0.00000001
     atom   18 type  1   force =    -0.00000000    0.00000001    0.00000001
     atom   19 type  1   force =     0.00000000   -0.00000002   -0.00000002
     atom   20 type  1   force =     0.00000000   -0.00000001    0.00000002
     atom   21 type  1   force =    -0.00000000    0.00000000   -0.00000000
     atom   22 type  1   force =     0.00000000    0.00000001   -0.00000006
     atom   23 type  1   force =    -0.00000000   -0.00000001    0.00000003
     atom   24 type  1   force =    -0.00000001   -0.00000001   -0.00000008
     atom   25 type  1   force =    -0.00000000    0.00000000    0.00000005
     atom   26 type  1   force =    -0.00000000   -0.00000001   -0.00000001
     atom   27 type  1   force =     0.00000000    0.00000000    0.00000005
     atom   28 type  1   force =    -0.00000000    0.00000000   -0.00000000
     atom   29 type  1   force =     0.00000000    0.00000001    0.00000000
     atom   30 type  1   force =     0.00000000    0.00000000   -0.00000000
     atom   31 type  1   force =     0.00000000    0.00000001   -0.00000000
     atom   32 type  1   force =    -0.00000000    0.00000000    0.00000001
     atom   33 type  1   force =     0.00000000   -0.00000001    0.00000000
     atom   34 type  1   force =     0.00000000   -0.00000001    0.00000001
     atom   35 type  1   force =    -0.00000000    0.00000001   -0.00000001
     atom   36 type  1   force =     0.00000000   -0.00000000   -0.00000006
     atom   37 type  1   force =    -0.00000000   -0.00000001    0.00000001
     atom   38 type  1   force =     0.00000000    0.00000001   -0.00000003
     atom   39 type  1   force =     0.00000000    0.00000000    0.00000007
     atom   40 type  1   force =    -0.00000000    0.00000001    0.00000001
     atom   41 type  1   force =    -0.00000000    0.00000001    0.00000001
     atom   42 type  1   force =     0.00000000   -0.00000001    0.00000001
     atom   43 type  1   force =    -0.00000000    0.00000001    0.00000001
     atom   44 type  1   force =     0.00000000    0.00000001    0.00000001
     atom   45 type  1   force =    -0.00000000   -0.00000002   -0.00000002
     atom   46 type  1   force =    -0.00000000   -0.00000001    0.00000002
     atom   47 type  1   force =     0.00000000    0.00000000   -0.00000000
     atom   48 type  1   force =    -0.00000000    0.00000001   -0.00000006
     atom   49 type  1   force =     0.00000000   -0.00000001    0.00000003
     atom   50 type  1   force =     0.00000001   -0.00000001   -0.00000008
     atom   51 type  1   force =     0.00000000    0.00000000    0.00000005
     atom   52 type  1   force =     0.00000000   -0.00000001   -0.00000001

     Total force =     0.001920     Total SCF correction =     0.000000

     Writing all to output data dir ./Li/Lithium.save/ :
     XML data file

     General routines

     Parallel routines

     PAW routines

     Environ routines

   This run was terminated on:  13:25:44   5Jan2025

   JOB DONE.