     Program PWSCF v.7.4 starts on  4Jan2025 at 23:18: 8
        Git branch: develop
        Last git commit: e877ff360aceba4b8d76ffc2fb1c70545fc5dd57
        Last git commit date: Sat Jan 4 12:56:15 2025 +0000
        Last git commit subject: Merge branch 'orthoU' into 'develop'

     Reading input from espresso.pwi
Warning: card &CELL ignored
Warning: card    PRESS_CONV_THR   = 0.1 ignored
Warning: card    CELL_DOFREE      = 'ALL' ignored
Warning: card / ignored
Warning: card &FCP ignored
Warning: card / ignored
Warning: card &RISM ignored
Warning: card / ignored

     Current dimensions of program PWSCF are:
     Max number of different atomic species (ntypx) = 10
     Max number of k-points (npk) =  40000
     Max angular momentum in pseudopotentials (lmaxx) =  4

     IMPORTANT: XC functional enforced from input :
     Exchange-correlation= PBE
                           (   1   4   3   4   0   0   0)
     Any further DFT definition will be discarded
     Please, verify this is what you really want

     Reading input from environ.in:
     * using ionic solvent mode
     * setting boundary derivatives method to SSCS default
     * setting electrolyte-boundary derivatives method to SSCS default

Environ Warning (1001): card EOF ignored

     Found identity + ( -0.5000 -0.5000 -0.0000) symmetry
     This is a supercell, fractional translations are disabled

     K-points division:     npool     =       2
     R & G space division:  proc/nbgrp/npool/nimage =     180
     Subspace diagonalization in iterative solution of the eigenvalue problem:
     a serial algorithm will be used

     Using Slab Decomposition

     bravais-lattice index     =            4
     lattice parameter (alat)  =      18.3607  a.u.
     unit-cell volume          =   28251.3786 (a.u.)^3
     number of atoms/cell      =           48
     number of atomic types    =            1
     number of electrons       =       144.00
     number of Kohn-Sham states=          108
     kinetic-energy cutoff     =      80.0000  Ry
     charge density cutoff     =     800.0000  Ry
     scf convergence threshold =      1.0E-06
     mixing beta               =       0.2000
     number of iterations used =            8  local-TF  mixing
     energy convergence thresh.=      1.0E-05
     force convergence thresh. =      3.9E-04
     Exchange-correlation= PBE
                           (   1   4   3   4   0   0   0)
     nstep                     =          999

                                  Environ Setup Summary

          O. Andreussi, I. Dabo and N. Marzari, J. Chem. Phys. 136, 064102 (2012)
          F. Nattino, M. Truscott, N. Marzari, and O. Andreussi, J. Chem. Phys. 150, 041722 (2019)

     in publications or presentations arising from this work.

     Parameters

     compensation onset threshold      =               0.1000E+00
     static permittivity               =                    89.90
     surface tension in input (dyn/cm) =                    37.30
     surface tension in internal units =               0.4792E-04

     Solvent Boundary

     solvent mode                      =                    ionic
     derivatives method                =                   lowmem
     electrolyte derivatives method    =                   lowmem
     numerical core for derivatives    =                      fft
     switching function adopted        =                     SCCS
     density limit for vacuum region   =               0.5000E-02
     density limit for bulk solvent    =               0.1000E-03
     soft-sphere radius mode           =                    bondi
     soft-sphere softness              =                     0.50
     alpha                             =                     1.32

     Electrostatic Setup

     electrostatic problem to solve    =                    modpb
     numerical solver adopted          =                   newton
     type of auxiliary density adopted =                     none
     numerical core for poisson        =                      fft
     adopting a nested solver scheme
     inner solver                      =                       cg
     inner core                        =                      fft
     type of pbc corrections           =                parabolic
     numerical core for corrections    =                      1da

     >>>>> Grand-Canonical SCF is activated <<<<<
     Initial Total Charge  =     0.000000 e
     Target Fermi Energy   =    -3.904000 eV
     Thr. of Fermi Energy  =     0.001000 eV
     Wave-shift of Kerker  =     0.400000 bohr^-1
     Wave-shift of Hartree =     1.500000 bohr^-1
     Mixing Rate of Fermi  =     0.050000

     celldm(1)=  18.360747  celldm(2)=   0.000000  celldm(3)=   5.270332
     celldm(4)=   0.000000  celldm(5)=   0.000000  celldm(6)=   0.000000

     crystal axes: (cart. coord. in units of alat)
               a(1) = (   1.000000   0.000000   0.000000 )
               a(2) = (  -0.500000   0.866025   0.000000 )
               a(3) = (   0.000000   0.000000   5.270332 )

     reciprocal axes: (cart. coord. in units 2 pi/alat)
               b(1) = (  1.000000  0.577350  0.000000 )
               b(2) = (  0.000000  1.154701  0.000000 )
               b(3) = (  0.000000  0.000000  0.189741 )

     PseudoPot. # 1 for Li read from file:
     /home/mmm1182/Repos/Pseudopotentials/pslibrary/Li.pbe-sl-kjpaw_psl.1.0.0.UPF
     MD5 check sum: f40bb4162937df3f7c561f1969c76545
     Pseudo is Projector augmented-wave, Zval =  3.0
     Generated using 'atomic' code by A. Dal Corso  v.7.3.1
     Shape of augmentation charge: PSQ
     Using radial grid of 1017 points,  4 beta functions with:
                l(1) =   0
                l(2) =   0
                l(3) =   1
                l(4) =   1
     Q(r) pseudized with 0 coefficients

     atomic species   valence    mass     pseudopotential
     Li                3.00     6.94000     Li( 1.00)

      2 Sym. Ops. (no inversion) found

                                    s                        frac. trans.

      isym =  1     identity

 cryst.   s( 1) = (     1          0          0      )
                  (     0          1          0      )
                  (     0          0          1      )

 cart.    s( 1) = (  1.0000000  0.0000000  0.0000000 )
                  (  0.0000000  1.0000000  0.0000000 )
                  (  0.0000000  0.0000000  1.0000000 )

      isym =  2     inv. 180 deg rotation - cart. axis [1,0,0]

 cryst.   s( 2) = (    -1          0          0      )
                  (     1          1          0      )
                  (     0          0          1      )

 cart.    s( 2) = ( -1.0000000  0.0000000  0.0000000 )
                  (  0.0000000  1.0000000  0.0000000 )
                  (  0.0000000  0.0000000  1.0000000 )

     point group C_s (m)
     there are  2 classes
     the character table:

       E     s
A'     1.00  1.00
A''    1.00 -1.00

     the symmetry operations in each class and the name of the first element:

     E        1
          identity
     s        2
          inv. 180 deg rotation - cart. axis [1,0,0]

   Cartesian axes

     site n.     atom                  positions (alat units)
         1        Li     tau(   1) = (  -0.0000000   0.0000004   2.5877252  )
         2        Li     tau(   2) = (   0.2500001   0.1443432   2.1961009  )
         3        Li     tau(   3) = (   0.5000000   0.2886790   2.3687810  )
         4        Li     tau(   4) = (   0.0000000   0.0000046   2.2774685  )
         5        Li     tau(   5) = (   0.2500001   0.1443396   2.4871698  )
         6        Li     tau(   6) = (   0.5000000   0.2886809   2.0540534  )
         7        Li     tau(   7) = (   0.0000000  -0.0000067   3.2162780  )
         8        Li     tau(   8) = (   0.2499999   0.1443350   2.7831634  )
         9        Li     tau(   9) = (   0.5000000   0.2886703   2.9928625  )
        10        Li     tau(  10) = (  -0.0000000  -0.0000042   2.9015507  )
        11        Li     tau(  11) = (   0.2500004   0.1443330   3.0742329  )
        12        Li     tau(  12) = (   0.5000000   0.2886741   2.6826060  )
        13        Li     tau(  13) = (   0.2499999   0.4330134   2.5877251  )
        14        Li     tau(  14) = (   0.5000000   0.5773550   2.1961009  )
        15        Li     tau(  15) = (   0.7500000   0.7216918   2.3687813  )
        16        Li     tau(  16) = (   0.2499997   0.4330179   2.2774688  )
        17        Li     tau(  17) = (   0.5000000   0.5773522   2.4871689  )
        18        Li     tau(  18) = (   0.7499981   0.7216945   2.0540539  )
        19        Li     tau(  19) = (   0.2499993   0.4330093   3.2162780  )
        20        Li     tau(  20) = (   0.5000000   0.5773482   2.7831629  )
        21        Li     tau(  21) = (   0.7499997   0.7216835   2.9928634  )
        22        Li     tau(  22) = (   0.2499997   0.4330093   2.9015504  )
        23        Li     tau(  23) = (   0.5000000   0.5773448   3.0742310  )
        24        Li     tau(  24) = (   0.7499999   0.7216871   2.6826066  )
        25        Li     tau(  25) = (   0.5000000  -0.0000001   2.5877245  )
        26        Li     tau(  26) = (   0.7499999   0.1443432   2.1961009  )
        27        Li     tau(  27) = (   1.0000000   0.2886787   2.3687815  )
        28        Li     tau(  28) = (   0.5000000   0.0000045   2.2774677  )
        29        Li     tau(  29) = (   0.7499999   0.1443396   2.4871698  )
        30        Li     tau(  30) = (   1.0000000   0.2886788   2.0540541  )
        31        Li     tau(  31) = (   0.5000000  -0.0000078   3.2162775  )
        32        Li     tau(  32) = (   0.7500001   0.1443350   2.7831634  )
        33        Li     tau(  33) = (   1.0000000   0.2886698   2.9928636  )
        34        Li     tau(  34) = (   0.5000000  -0.0000046   2.9015502  )
        35        Li     tau(  35) = (   0.7499996   0.1443330   3.0742329  )
        36        Li     tau(  36) = (   1.0000000   0.2886742   2.6826071  )
        37        Li     tau(  37) = (   0.7500001   0.4330134   2.5877251  )
        38        Li     tau(  38) = (   1.0000000   0.5773556   2.1960979  )
        39        Li     tau(  39) = (   1.2500000   0.7216918   2.3687813  )
        40        Li     tau(  40) = (   0.7500003   0.4330179   2.2774688  )
        41        Li     tau(  41) = (   1.0000000   0.5773520   2.4871672  )
        42        Li     tau(  42) = (   1.2500019   0.7216945   2.0540539  )
        43        Li     tau(  43) = (   0.7500007   0.4330093   3.2162780  )
        44        Li     tau(  44) = (   1.0000000   0.5773482   2.7831610  )
        45        Li     tau(  45) = (   1.2500003   0.7216835   2.9928634  )
        46        Li     tau(  46) = (   0.7500003   0.4330093   2.9015504  )
        47        Li     tau(  47) = (   1.0000000   0.5773448   3.0742296  )
        48        Li     tau(  48) = (   1.2500001   0.7216871   2.6826066  )

   Crystallographic axes

     site n.     atom                  positions (cryst. coord.)
         1        Li     tau(   1) = (  0.0000002  0.0000004  0.4909985  )
         2        Li     tau(   2) = (  0.3333367  0.1666732  0.4166912  )
[...]
     atom   28 type  1   force =     0.00000312    0.00003000    8.40905255
     atom   29 type  1   force =    -0.00000220   -0.00002566    3.46317092
     atom   30 type  1   force =     0.00000863   -0.00007676   12.51017730
     atom   31 type  1   force =     0.00000256   -0.00002093  -12.51032307
     atom   32 type  1   force =    -0.00000547   -0.00003374   -3.46328461
     atom   33 type  1   force =     0.00000334    0.00000824   -8.40939498
     atom   34 type  1   force =     0.00000254   -0.00001085   -6.26224205
     atom   35 type  1   force =     0.00001593   -0.00001648  -10.37627022
     atom   36 type  1   force =     0.00000392   -0.00001862   -1.06219091
     atom   37 type  1   force =     0.00001284    0.00000054    1.06237563
     atom   38 type  1   force =     0.00000277    0.00006938   10.37616829
     atom   39 type  1   force =     0.00000364    0.00005114    6.26278315
     atom   40 type  1   force =     0.00000778   -0.00002022    8.40913873
     atom   41 type  1   force =     0.00000335    0.00001806    3.46351306
     atom   42 type  1   force =    -0.00000092    0.00007151   12.51019981
     atom   43 type  1   force =     0.00002225    0.00001054  -12.51034314
     atom   44 type  1   force =     0.00000335    0.00001997   -3.46300575
     atom   45 type  1   force =    -0.00001611    0.00000889   -8.40915068
     atom   46 type  1   force =     0.00003037    0.00000467   -6.26230739
     atom   47 type  1   force =     0.00000335    0.00000313  -10.37595627
     atom   48 type  1   force =    -0.00001710    0.00003366   -1.06202966
     The core correction contribution to forces
     atom    1 type  1   force =     0.00000000    0.00000000    0.00000000
     atom    2 type  1   force =     0.00000000    0.00000000    0.00000000
     atom    3 type  1   force =     0.00000000    0.00000000    0.00000000
     atom    4 type  1   force =     0.00000000    0.00000000    0.00000000
     atom    5 type  1   force =     0.00000000    0.00000000    0.00000000
     atom    6 type  1   force =     0.00000000    0.00000000    0.00000000
     atom    7 type  1   force =     0.00000000    0.00000000    0.00000000
     atom    8 type  1   force =     0.00000000    0.00000000    0.00000000
     atom    9 type  1   force =     0.00000000    0.00000000    0.00000000
     atom   10 type  1   force =     0.00000000    0.00000000    0.00000000
     atom   11 type  1   force =     0.00000000    0.00000000    0.00000000
     atom   12 type  1   force =     0.00000000    0.00000000    0.00000000
     atom   13 type  1   force =     0.00000000    0.00000000    0.00000000
     atom   14 type  1   force =     0.00000000    0.00000000    0.00000000
     atom   15 type  1   force =     0.00000000    0.00000000    0.00000000
     atom   16 type  1   force =     0.00000000    0.00000000    0.00000000
     atom   17 type  1   force =     0.00000000    0.00000000    0.00000000
     atom   18 type  1   force =     0.00000000    0.00000000    0.00000000
     atom   19 type  1   force =     0.00000000    0.00000000    0.00000000
     atom   20 type  1   force =     0.00000000    0.00000000    0.00000000
     atom   21 type  1   force =     0.00000000    0.00000000    0.00000000
     atom   22 type  1   force =     0.00000000    0.00000000    0.00000000
     atom   23 type  1   force =     0.00000000    0.00000000    0.00000000
     atom   24 type  1   force =     0.00000000    0.00000000    0.00000000
     atom   25 type  1   force =     0.00000000    0.00000000    0.00000000
     atom   26 type  1   force =     0.00000000    0.00000000    0.00000000
     atom   27 type  1   force =     0.00000000    0.00000000    0.00000000
     atom   28 type  1   force =     0.00000000    0.00000000    0.00000000
     atom   29 type  1   force =     0.00000000    0.00000000    0.00000000
     atom   30 type  1   force =     0.00000000    0.00000000    0.00000000
     atom   31 type  1   force =     0.00000000    0.00000000    0.00000000
     atom   32 type  1   force =     0.00000000    0.00000000    0.00000000
     atom   33 type  1   force =     0.00000000    0.00000000    0.00000000
     atom   34 type  1   force =     0.00000000    0.00000000    0.00000000
     atom   35 type  1   force =     0.00000000    0.00000000    0.00000000
     atom   36 type  1   force =     0.00000000    0.00000000    0.00000000
     atom   37 type  1   force =     0.00000000    0.00000000    0.00000000
     atom   38 type  1   force =     0.00000000    0.00000000    0.00000000
     atom   39 type  1   force =     0.00000000    0.00000000    0.00000000
     atom   40 type  1   force =     0.00000000    0.00000000    0.00000000
     atom   41 type  1   force =     0.00000000    0.00000000    0.00000000
     atom   42 type  1   force =     0.00000000    0.00000000    0.00000000
     atom   43 type  1   force =     0.00000000    0.00000000    0.00000000
     atom   44 type  1   force =     0.00000000    0.00000000    0.00000000
     atom   45 type  1   force =     0.00000000    0.00000000    0.00000000
     atom   46 type  1   force =     0.00000000    0.00000000    0.00000000
     atom   47 type  1   force =     0.00000000    0.00000000    0.00000000
     atom   48 type  1   force =     0.00000000    0.00000000    0.00000000
     The Hubbard contrib.    to forces
     atom    1 type  1   force =     0.00000000    0.00000000    0.00000000
     atom    2 type  1   force =     0.00000000    0.00000000    0.00000000
     atom    3 type  1   force =     0.00000000    0.00000000    0.00000000
     atom    4 type  1   force =     0.00000000    0.00000000    0.00000000
     atom    5 type  1   force =     0.00000000    0.00000000    0.00000000
     atom    6 type  1   force =     0.00000000    0.00000000    0.00000000
     atom    7 type  1   force =     0.00000000    0.00000000    0.00000000
     atom    8 type  1   force =     0.00000000    0.00000000    0.00000000
     atom    9 type  1   force =     0.00000000    0.00000000    0.00000000
     atom   10 type  1   force =     0.00000000    0.00000000    0.00000000
     atom   11 type  1   force =     0.00000000    0.00000000    0.00000000
     atom   12 type  1   force =     0.00000000    0.00000000    0.00000000
     atom   13 type  1   force =     0.00000000    0.00000000    0.00000000
     atom   14 type  1   force =     0.00000000    0.00000000    0.00000000
     atom   15 type  1   force =     0.00000000    0.00000000    0.00000000
     atom   16 type  1   force =     0.00000000    0.00000000    0.00000000
     atom   17 type  1   force =     0.00000000    0.00000000    0.00000000
     atom   18 type  1   force =     0.00000000    0.00000000    0.00000000
     atom   19 type  1   force =     0.00000000    0.00000000    0.00000000
     atom   20 type  1   force =     0.00000000    0.00000000    0.00000000
     atom   21 type  1   force =     0.00000000    0.00000000    0.00000000
     atom   22 type  1   force =     0.00000000    0.00000000    0.00000000
     atom   23 type  1   force =     0.00000000    0.00000000    0.00000000
     atom   24 type  1   force =     0.00000000    0.00000000    0.00000000
     atom   25 type  1   force =     0.00000000    0.00000000    0.00000000
     atom   26 type  1   force =     0.00000000    0.00000000    0.00000000
     atom   27 type  1   force =     0.00000000    0.00000000    0.00000000
     atom   28 type  1   force =     0.00000000    0.00000000    0.00000000
     atom   29 type  1   force =     0.00000000    0.00000000    0.00000000
     atom   30 type  1   force =     0.00000000    0.00000000    0.00000000
     atom   31 type  1   force =     0.00000000    0.00000000    0.00000000
     atom   32 type  1   force =     0.00000000    0.00000000    0.00000000
     atom   33 type  1   force =     0.00000000    0.00000000    0.00000000
     atom   34 type  1   force =     0.00000000    0.00000000    0.00000000
     atom   35 type  1   force =     0.00000000    0.00000000    0.00000000
     atom   36 type  1   force =     0.00000000    0.00000000    0.00000000
     atom   37 type  1   force =     0.00000000    0.00000000    0.00000000
     atom   38 type  1   force =     0.00000000    0.00000000    0.00000000
     atom   39 type  1   force =     0.00000000    0.00000000    0.00000000
     atom   40 type  1   force =     0.00000000    0.00000000    0.00000000
     atom   41 type  1   force =     0.00000000    0.00000000    0.00000000
     atom   42 type  1   force =     0.00000000    0.00000000    0.00000000
     atom   43 type  1   force =     0.00000000    0.00000000    0.00000000
     atom   44 type  1   force =     0.00000000    0.00000000    0.00000000
     atom   45 type  1   force =     0.00000000    0.00000000    0.00000000
     atom   46 type  1   force =     0.00000000    0.00000000    0.00000000
     atom   47 type  1   force =     0.00000000    0.00000000    0.00000000
     atom   48 type  1   force =     0.00000000    0.00000000    0.00000000
     The SCF correction term to forces
     atom    1 type  1   force =    -0.00000000    0.00000005   -0.00000001
     atom    2 type  1   force =     0.00000004    0.00000007    0.00000082
     atom    3 type  1   force =    -0.00000000    0.00000002    0.00000230
     atom    4 type  1   force =     0.00000000    0.00000009   -0.00000859
     atom    5 type  1   force =     0.00000007    0.00000016    0.00000010
     atom    6 type  1   force =     0.00000000    0.00000000    0.00000050
     atom    7 type  1   force =     0.00000000   -0.00000002   -0.00000079
     atom    8 type  1   force =     0.00000003    0.00000019   -0.00000008
     atom    9 type  1   force =     0.00000000    0.00000017    0.00000867
     atom   10 type  1   force =    -0.00000000   -0.00000002   -0.00000221
     atom   11 type  1   force =    -0.00000001    0.00000012   -0.00000059
     atom   12 type  1   force =    -0.00000000    0.00000014    0.00000013
     atom   13 type  1   force =     0.00000009   -0.00000010   -0.00000005
     atom   14 type  1   force =     0.00000000   -0.00000009    0.00000078
     atom   15 type  1   force =     0.00000009   -0.00000007    0.00000219
     atom   16 type  1   force =    -0.00000005   -0.00000006   -0.00000848
     atom   17 type  1   force =     0.00000000   -0.00000020    0.00000017
     atom   18 type  1   force =     0.00000005   -0.00000003    0.00000046
     atom   19 type  1   force =     0.00000007   -0.00000003   -0.00000080
     atom   20 type  1   force =    -0.00000000   -0.00000022   -0.00000004
     atom   21 type  1   force =    -0.00000017   -0.00000011    0.00000872
     atom   22 type  1   force =     0.00000018   -0.00000008   -0.00000231
     atom   23 type  1   force =     0.00000000   -0.00000013   -0.00000074
     atom   24 type  1   force =    -0.00000008   -0.00000010    0.00000009
     atom   25 type  1   force =     0.00000000    0.00000015   -0.00000013
     atom   26 type  1   force =    -0.00000004    0.00000007    0.00000082
     atom   27 type  1   force =     0.00000000    0.00000012    0.00000224
     atom   28 type  1   force =     0.00000000    0.00000004   -0.00000854
     atom   29 type  1   force =    -0.00000007    0.00000016    0.00000010
     atom   30 type  1   force =     0.00000000    0.00000008    0.00000049
     atom   31 type  1   force =    -0.00000000    0.00000005   -0.00000071
     atom   32 type  1   force =    -0.00000003    0.00000019   -0.00000008
     atom   33 type  1   force =    -0.00000000   -0.00000004    0.00000875
     atom   34 type  1   force =     0.00000000    0.00000018   -0.00000225
     atom   35 type  1   force =     0.00000001    0.00000013   -0.00000059
     atom   36 type  1   force =    -0.00000000    0.00000004    0.00000009
     atom   37 type  1   force =    -0.00000009   -0.00000010   -0.00000005
     atom   38 type  1   force =    -0.00000000   -0.00000005    0.00000086
     atom   39 type  1   force =    -0.00000009   -0.00000007    0.00000219
     atom   40 type  1   force =     0.00000005   -0.00000006   -0.00000848
     atom   41 type  1   force =    -0.00000000   -0.00000012   -0.00000001
     atom   42 type  1   force =    -0.00000005   -0.00000003    0.00000046
     atom   43 type  1   force =    -0.00000006   -0.00000003   -0.00000080
     atom   44 type  1   force =     0.00000000   -0.00000018   -0.00000016
     atom   45 type  1   force =     0.00000017   -0.00000011    0.00000872
     atom   46 type  1   force =    -0.00000018   -0.00000008   -0.00000231
     atom   47 type  1   force =    -0.00000000   -0.00000015   -0.00000057
     atom   48 type  1   force =     0.00000008   -0.00000010    0.00000009

     Total force =     0.001190     Total SCF correction =     0.000025
     Energy error            =      9.1E-06 Ry
     Gradient error          =      3.7E-04 Ry/Bohr

     bfgs converged in  44 scf cycles and  37 bfgs steps
     (criteria: energy <  1.0E-05 Ry, force <  3.9E-04 Ry/Bohr)

     End of BFGS Geometry Optimization

     Final energy             =    -721.9211263868 Ry

     File ./Li/Lithium.bfgs deleted, as requested
Begin final coordinates

ATOMIC_POSITIONS (angstrom)
Li              -0.0000000100       -0.0000085991       25.1610364443
Li               2.4290019754        1.4024299081       21.2889824786
Li               4.8580444100        2.8048239155       22.9634525899
Li               0.0000000100       -0.0000136888       22.1397912483
Li               2.4290325977        1.4024215673       24.1469085563
Li               4.8580445000        2.8046432654       19.7878658907
Li              -0.0000000000       -0.0000932471       31.4183523580
Li               2.4290361386        1.4023707576       27.0604933591
Li               4.8580444100        2.8047526303       29.0673760464
Li              -0.0000000100       -0.0000024789       28.2435568154
Li               2.4290317691        1.4023706394       29.9181904940
Li               4.8580444200        2.8047974124       26.0463079491
Li               2.4290087145        4.2072042708       25.1610294037
Li               4.8580443900        5.6095997045       21.2887773258
Li               7.2870667210        7.0120209362       22.9634593558
Li               2.4290076469        4.2072405044       22.1397758798
Li               4.8580444100        5.6095784473       24.1467841913
Li               7.2870665478        7.0121707962       19.7878497616
Li               2.4289780250        4.2072268263       31.4184117062
Li               4.8580444000        5.6095951050       27.0604106931
Li               7.2870562859        7.0119628020       29.0673393358
Li               2.4290106342        4.2071611132       28.2435776447
Li               4.8580444000        5.6095280217       29.9181239090
Li               7.2870785402        7.0119925317       26.0462773473
Li               4.8580444000       -0.0000073341       25.1610357979
Li               7.2870868446        1.4024298881       21.2889826286
Li               9.7160888200        2.8047953896       22.9634736801
Li               4.8580443900        0.0000360222       22.1397757985
Li               7.2870562223        1.4024215673       24.1469086363
Li               9.7160887400        2.8046777391       19.7878737893
Li               4.8580444000       -0.0001001769       31.4183566938
Li               7.2870526814        1.4023707576       27.0604934091
Li               9.7160888300        2.8047674686       29.0674468753
Li               4.8580444000       -0.0000289983       28.2435349242
Li               7.2870570509        1.4023706294       29.9181905340
Li               9.7160888200        2.8047558710       26.0463481960
Li               7.2870800956        4.2072042808       25.1610294037
Li               9.7160888400        5.6096373712       21.2887823261
Li              12.1451109290        7.0120209462       22.9634593658
Li               7.2870811631        4.2072405244       22.1397758898
Li               9.7160888300        5.6095825619       24.1467753291
Li              12.1451111022        7.0121709062       19.7878497716
Li               7.2871107850        4.2072268363       31.4184116962
Li               9.7160888300        5.6095523219       27.0603839889
Li              12.1451213642        7.0119628020       29.0673393358
Li               7.2870781858        4.2071611132       28.2435776347
Li               9.7160888300        5.6095793278       29.9180467424
Li              12.1450991198        7.0119925417       26.0462773473
End final coordinates

     Writing all to output data dir ./Li/Lithium.save/ :
     XML data file

     General routines

     Parallel routines

     PAW routines

     Environ routines

   This run was terminated on:   8:50: 6   5Jan2025

   JOB DONE.