     Program PWSCF v.7.4 starts on  6Jan2025 at 14:29:54
        Git branch: develop
        Last git commit: e877ff360aceba4b8d76ffc2fb1c70545fc5dd57
        Last git commit date: Sat Jan 4 12:56:15 2025 +0000
        Last git commit subject: Merge branch 'orthoU' into 'develop'

     Reading input from espresso.pwi
Warning: card &CELL ignored
Warning: card    PRESS_CONV_THR   = 0.1 ignored
Warning: card    CELL_DOFREE      = 'ALL' ignored
Warning: card / ignored
Warning: card &FCP ignored
Warning: card / ignored
Warning: card &RISM ignored
Warning: card / ignored

     Current dimensions of program PWSCF are:
     Max number of different atomic species (ntypx) = 10
     Max number of k-points (npk) =  40000
     Max angular momentum in pseudopotentials (lmaxx) =  4

     IMPORTANT: XC functional enforced from input :
     Exchange-correlation= PBE
                           (   1   4   3   4   0   0   0)
     Any further DFT definition will be discarded
     Please, verify this is what you really want

     Reading input from environ.in:
     * using ionic solvent mode
     * setting boundary derivatives method to SSCS default
     * setting electrolyte-boundary derivatives method to SSCS default

Environ Warning (1001): card EOF ignored

     Found identity + (  0.5000  0.0000  0.0000) symmetry
     This is a supercell, fractional translations are disabled

     K-points division:     npool     =       2
     R & G space division:  proc/nbgrp/npool/nimage =     180
     Subspace diagonalization in iterative solution of the eigenvalue problem:
     a serial algorithm will be used

     Using Slab Decomposition

     bravais-lattice index     =            8
     lattice parameter (alat)  =      12.9830  a.u.
     unit-cell volume          =   16814.9378 (a.u.)^3
     number of atoms/cell      =           20
     number of atomic types    =            1
     number of electrons       =        60.00
     number of Kohn-Sham states=           45
     kinetic-energy cutoff     =      80.0000  Ry
     charge density cutoff     =     800.0000  Ry
     scf convergence threshold =      1.0E-06
     mixing beta               =       0.2000
     number of iterations used =            8  local-TF  mixing
     energy convergence thresh.=      1.0E-05
     force convergence thresh. =      3.9E-04
     Exchange-correlation= PBE
                           (   1   4   3   4   0   0   0)
     nstep                     =          999

                                  Environ Setup Summary

          O. Andreussi, I. Dabo and N. Marzari, J. Chem. Phys. 136, 064102 (2012)
          F. Nattino, M. Truscott, N. Marzari, and O. Andreussi, J. Chem. Phys. 150, 041722 (2019)

     in publications or presentations arising from this work.

     Parameters

     compensation onset threshold      =               0.1000E+00
     static permittivity               =                    89.90
     surface tension in input (dyn/cm) =                    37.30
     surface tension in internal units =               0.4792E-04

     Solvent Boundary

     solvent mode                      =                    ionic
     derivatives method                =                   lowmem
     electrolyte derivatives method    =                   lowmem
     numerical core for derivatives    =                      fft
     switching function adopted        =                     SCCS
     density limit for vacuum region   =               0.5000E-02
     density limit for bulk solvent    =               0.1000E-03
     soft-sphere radius mode           =                    bondi
     soft-sphere softness              =                     0.50
     alpha                             =                     1.32

     Electrostatic Setup

     electrostatic problem to solve    =                    modpb
     numerical solver adopted          =                   newton
     type of auxiliary density adopted =                     none
     numerical core for poisson        =                      fft
     adopting a nested solver scheme
     inner solver                      =                       cg
     inner core                        =                      fft
     type of pbc corrections           =                parabolic
     numerical core for corrections    =                      1da

     >>>>> Grand-Canonical SCF is activated <<<<<
     Initial Total Charge  =     0.000000 e
     Target Fermi Energy   =    -4.404000 eV
     Thr. of Fermi Energy  =     0.001000 eV
     Wave-shift of Kerker  =     0.400000 bohr^-1
     Wave-shift of Hartree =     1.500000 bohr^-1
     Mixing Rate of Fermi  =     0.050000

     celldm(1)=  12.983009  celldm(2)=   1.118034  celldm(3)=   6.872491
     celldm(4)=   0.000000  celldm(5)=   0.000000  celldm(6)=   0.000000

     crystal axes: (cart. coord. in units of alat)
               a(1) = (   1.000000   0.000000   0.000000 )
               a(2) = (   0.000000   1.118034   0.000000 )
               a(3) = (   0.000000   0.000000   6.872491 )

     reciprocal axes: (cart. coord. in units 2 pi/alat)
               b(1) = (  1.000000  0.000000  0.000000 )
               b(2) = (  0.000000  0.894427  0.000000 )
               b(3) = (  0.000000  0.000000  0.145508 )

     PseudoPot. # 1 for Li read from file:
     /home/mmm1182/Repos/Pseudopotentials/pslibrary/Li.pbe-sl-kjpaw_psl.1.0.0.UPF
     MD5 check sum: f40bb4162937df3f7c561f1969c76545
     Pseudo is Projector augmented-wave, Zval =  3.0
     Generated using 'atomic' code by A. Dal Corso  v.7.3.1
     Shape of augmentation charge: PSQ
     Using radial grid of 1017 points,  4 beta functions with:
                l(1) =   0
                l(2) =   0
                l(3) =   1
                l(4) =   1
     Q(r) pseudized with 0 coefficients

     atomic species   valence    mass     pseudopotential
     Li                3.00     6.94000     Li( 1.00)

      2 Sym. Ops. (no inversion) found

                                    s                        frac. trans.

      isym =  1     identity

 cryst.   s( 1) = (     1          0          0      )
                  (     0          1          0      )
                  (     0          0          1      )

 cart.    s( 1) = (  1.0000000  0.0000000  0.0000000 )
                  (  0.0000000  1.0000000  0.0000000 )
                  (  0.0000000  0.0000000  1.0000000 )

      isym =  2     inv. 180 deg rotation - cart. axis [1,0,0]

 cryst.   s( 2) = (    -1          0          0      )
                  (     0          1          0      )
                  (     0          0          1      )

 cart.    s( 2) = ( -1.0000000  0.0000000  0.0000000 )
                  (  0.0000000  1.0000000  0.0000000 )
                  (  0.0000000  0.0000000  1.0000000 )

     point group C_s (m)
     there are  2 classes
     the character table:

       E     s
A'     1.00  1.00
A''    1.00 -1.00

     the symmetry operations in each class and the name of the first element:

     E        1
          identity
     s        2
          inv. 180 deg rotation - cart. axis [1,0,0]

   Cartesian axes

     site n.     atom                  positions (alat units)
         1        Li     tau(   1) = (  -0.0000000   0.4609023   3.6983300  )
         2        Li     tau(   2) = (  -0.0000000   0.8849515   3.5050606  )
         3        Li     tau(   3) = (  -0.0000000   0.2319789   3.2598763  )
         4        Li     tau(   4) = (  -0.0000000   0.6178895   3.0175349  )
         5        Li     tau(   5) = (  -0.0000000   0.1129550   3.9976639  )
         6        Li     tau(   6) = (   0.2500010   0.5684963   3.3674408  )
         7        Li     tau(   7) = (   0.2500006   0.9925372   3.1741774  )
         8        Li     tau(   8) = (   0.2500005   0.2224650   2.8747900  )
         9        Li     tau(   9) = (   0.2500013   0.8355401   3.8549492  )
        10        Li     tau(  10) = (   0.2500008   0.1034369   3.6126260  )
        11        Li     tau(  11) = (   0.5000000   0.4609025   3.6983309  )
        12        Li     tau(  12) = (   0.5000000   0.8849515   3.5050619  )
        13        Li     tau(  13) = (   0.5000000   0.2319779   3.2598766  )
        14        Li     tau(  14) = (   0.5000000   0.6178900   3.0175347  )
        15        Li     tau(  15) = (   0.5000000   0.1129548   3.9976581  )
        16        Li     tau(  16) = (   0.7499990   0.5684963   3.3674408  )
        17        Li     tau(  17) = (   0.7499993   0.9925372   3.1741774  )
        18        Li     tau(  18) = (   0.7499995   0.2224650   2.8747900  )
        19        Li     tau(  19) = (   0.7499987   0.8355401   3.8549492  )
        20        Li     tau(  20) = (   0.7499992   0.1034369   3.6126260  )

   Crystallographic axes

     site n.     atom                  positions (cryst. coord.)
         1        Li     tau(   1) = ( -0.0000000  0.4122435  0.5381353  )
         2        Li     tau(   2) = ( -0.0000000  0.7915247  0.5100131  )
         3        Li     tau(   3) = ( -0.0000000  0.2074883  0.4743369  )
         4        Li     tau(   4) = ( -0.0000000  0.5526572  0.4390744  )
         5        Li     tau(   5) = ( -0.0000000  0.1010301  0.5816907  )
         6        Li     tau(   6) = (  0.2500010  0.5084786  0.4899884  )
         7        Li     tau(   7) = (  0.2500006  0.8877522  0.4618671  )
         8        Li     tau(   8) = (  0.2500005  0.1989787  0.4183039  )
         9        Li     tau(   9) = (  0.2500013  0.7473298  0.5609246  )
        10        Li     tau(  10) = (  0.2500008  0.0925168  0.5256647  )
        11        Li     tau(  11) = (  0.5000000  0.4122437  0.5381354  )
        12        Li     tau(  12) = (  0.5000000  0.7915247  0.5100133  )
        13        Li     tau(  13) = (  0.5000000  0.2074873  0.4743370  )
        14        Li     tau(  14) = (  0.5000000  0.5526576  0.4390744  )
        15        Li     tau(  15) = (  0.5000000  0.1010298  0.5816898  )
        16        Li     tau(  16) = (  0.7499990  0.5084786  0.4899884  )
        17        Li     tau(  17) = (  0.7499993  0.8877522  0.4618671  )
        18        Li     tau(  18) = (  0.7499995  0.1989787  0.4183039  )
        19        Li     tau(  19) = (  0.7499987  0.7473298  0.5609246  )
        20        Li     tau(  20) = (  0.7499992  0.0925168  0.5256647  )

     number of k points=    30  Marzari-Vanderbilt smearing, width (Ry)=  0.0100
                       cart. coord. in units 2pi/alat
        k(    1) = (   0.0000000   0.0000000   0.0000000), wk =   0.0222222
        k(    2) = (   0.0000000   0.0993808   0.0000000), wk =   0.0444444
        k(    3) = (   0.0000000   0.1987616   0.0000000), wk =   0.0444444
        k(    4) = (   0.0000000   0.2981424   0.0000000), wk =   0.0444444
        k(    5) = (   0.0000000   0.3975232   0.0000000), wk =   0.0444444
        k(    6) = (   0.1000000   0.0000000   0.0000000), wk =   0.0444444
        k(    7) = (   0.1000000   0.0993808   0.0000000), wk =   0.0888889
        k(    8) = (   0.1000000   0.1987616   0.0000000), wk =   0.0888889
        k(    9) = (   0.1000000   0.2981424   0.0000000), wk =   0.0888889
[...]
    -5.4897  -5.4897  -5.2396  -5.2396  -4.1525  -4.1525  -3.3576  -3.3576
    -3.1338  -3.1338  -2.5574  -2.5574  -2.2335  -2.2335  -2.0987  -2.0987
    -1.5850  -1.5850  -1.1649  -1.1649  -0.7941

     occupation numbers
     1.0000   1.0000   1.0000   1.0000   1.0000   1.0000   1.0000   1.0000
     1.0000   1.0000   1.0000   1.0000   1.0000   1.0000   1.0000   1.0000
     1.0000   1.0000   1.0000   1.0000   1.0000   1.0000   1.0000   1.0000
     1.0000   1.0000   1.0000   1.0000   0.0007   0.0007   0.0000   0.0000
     0.0000   0.0000   0.0000   0.0000   0.0000   0.0000   0.0000   0.0000
     0.0000   0.0000   0.0000   0.0000   0.0000

     the Fermi energy is    -4.4040 ev

!    total energy              =    -300.85446826 Ry
     total all-electron energy =      -300.854631 Ry
     estimated scf accuracy    <          6.5E-13 Ry

!    total charge of GC-SCF    =       2.88202120 e
     smearing contrib. (-TS)   =       0.00054889 Ry
     internal energy E=F+TS    =    -300.85501716 Ry

     The total energy is F=E-TS. E is the sum of the following terms:
     one-electron contribution =   -2460.77354265 Ry
     hartree contribution      =    1193.40024796 Ry
     xc contribution           =     -70.34858693 Ry
     ewald contribution        =    1111.30743829 Ry
     one-center paw contrib.   =       1.77118442 Ry
      -> PAW hartree energy AE =       7.34565897 Ry
      -> PAW hartree energy PS =      -7.12262982 Ry
      -> PAW xc energy AE      =      -3.46947897 Ry
      -> PAW xc energy PS      =       3.33479917 Ry
      -> total E_H with PAW    =    1193.62327710 Ry
      -> total E_XC with PAW   =     -70.48326672 Ry
     pot.stat. contrib. (-muN) =      -0.93287576 Ry
     electrostatic embedding   =      -1.81297081 Ry
     cavitation energy         =       0.02410274 Ry
     electrolyte free energy   =      -0.02704770 Ry
     correction to one-el term =     -73.46296672 Ry

     WARNING: you are using the parabolic pbc correction;
              the potential shift above must be added to
              band and Fermi energies.

     convergence has been achieved in  16 iterations
     The dielectric solvent contribution to forces
     atom    1 type  1   force =     0.00000000    0.00718811    0.05072465
     atom    2 type  1   force =     0.00000000   -0.00475589    0.00526396
     atom    3 type  1   force =     0.00000000   -0.00659473   -0.01754310
     atom    4 type  1   force =     0.00000000    0.02602978   -0.02207874
     atom    5 type  1   force =     0.00000000    0.01651394   -0.04745462
     atom    6 type  1   force =     0.00000001    0.00475579   -0.00526531
     atom    7 type  1   force =     0.00000001   -0.00718891   -0.05072554
     atom    8 type  1   force =     0.00000001   -0.01651369    0.04745515
     atom    9 type  1   force =     0.00000002   -0.02602992    0.02207668
     atom   10 type  1   force =     0.00000001    0.00659532    0.01754217
     atom   11 type  1   force =    -0.00000000    0.00718813    0.05072468
     atom   12 type  1   force =    -0.00000000   -0.00475590    0.00526395
     atom   13 type  1   force =    -0.00000000   -0.00659473   -0.01754310
     atom   14 type  1   force =    -0.00000000    0.02602978   -0.02207875
     atom   15 type  1   force =    -0.00000000    0.01651389   -0.04745422
     atom   16 type  1   force =    -0.00000001    0.00475579   -0.00526531
     atom   17 type  1   force =    -0.00000001   -0.00718891   -0.05072554
     atom   18 type  1   force =    -0.00000001   -0.01651369    0.04745515
     atom   19 type  1   force =    -0.00000002   -0.02602992    0.02207668
     atom   20 type  1   force =    -0.00000001    0.00659532    0.01754217

     Forces acting on atoms (cartesian axes, Ry/au):

     atom    1 type  1   force =     0.00000000    0.00019606   -0.00017327
     atom    2 type  1   force =     0.00000000    0.00022038    0.00001111
     atom    3 type  1   force =     0.00000000    0.00010280   -0.00038575
     atom    4 type  1   force =     0.00000000   -0.00018490   -0.00024661
     atom    5 type  1   force =     0.00000000    0.00031709   -0.00013867
     atom    6 type  1   force =     0.00000011   -0.00022056   -0.00001011
     atom    7 type  1   force =    -0.00000002   -0.00019560    0.00017337
     atom    8 type  1   force =    -0.00000001   -0.00031637    0.00013830
     atom    9 type  1   force =     0.00000003    0.00018479    0.00024536
     atom   10 type  1   force =     0.00000002   -0.00010371    0.00038624
     atom   11 type  1   force =     0.00000000    0.00019613   -0.00017338
     atom   12 type  1   force =     0.00000000    0.00022023    0.00001121
     atom   13 type  1   force =     0.00000000    0.00010286   -0.00038570
     atom   14 type  1   force =     0.00000000   -0.00018488   -0.00024658
     atom   15 type  1   force =     0.00000000    0.00031710   -0.00013867
     atom   16 type  1   force =    -0.00000011   -0.00022056   -0.00001011
     atom   17 type  1   force =     0.00000002   -0.00019560    0.00017337
     atom   18 type  1   force =     0.00000001   -0.00031637    0.00013830
     atom   19 type  1   force =    -0.00000003    0.00018479    0.00024536
     atom   20 type  1   force =    -0.00000002   -0.00010371    0.00038624
     The non-local contrib.  to forces
     atom    1 type  1   force =     0.00000000    0.00069041    0.05244705
     atom    2 type  1   force =     0.00000000    0.00599963   -0.00179246
     atom    3 type  1   force =     0.00000000    0.00319934    0.00178975
     atom    4 type  1   force =     0.00000000    0.02325404   -0.08021567
     atom    5 type  1   force =     0.00000000    0.01701086    0.08261072
     atom    6 type  1   force =     0.00000016   -0.00599892    0.00179396
     atom    7 type  1   force =    -0.00000001   -0.00069112   -0.05244660
     atom    8 type  1   force =     0.00000001   -0.01701029   -0.08261041
     atom    9 type  1   force =     0.00000008   -0.02325485    0.08021518
     atom   10 type  1   force =     0.00000004   -0.00319977   -0.00178905
     atom   11 type  1   force =     0.00000000    0.00069054    0.05244703
     atom   12 type  1   force =     0.00000000    0.00599949   -0.00179230
     atom   13 type  1   force =     0.00000000    0.00319942    0.00178987
     atom   14 type  1   force =     0.00000000    0.02325408   -0.08021556
     atom   15 type  1   force =     0.00000000    0.01701081    0.08261083
     atom   16 type  1   force =    -0.00000016   -0.00599892    0.00179396
     atom   17 type  1   force =     0.00000001   -0.00069112   -0.05244660
     atom   18 type  1   force =    -0.00000001   -0.01701029   -0.08261041
     atom   19 type  1   force =    -0.00000008   -0.02325485    0.08021518
     atom   20 type  1   force =    -0.00000004   -0.00319977   -0.00178905
     The ionic contribution  to forces
     atom    1 type  1   force =    -0.00000002    0.04088860    4.57962999
     atom    2 type  1   force =    -0.00000002    0.02656165    1.26135556
     atom    3 type  1   force =    -0.00000003   -0.12398294   -2.96952772
     atom    4 type  1   force =    -0.00000001    0.33051163   -6.90945819
     atom    5 type  1   force =    -0.00000000    0.20708606    8.12032372
     atom    6 type  1   force =     0.00000344   -0.02656216   -1.26131493
     atom    7 type  1   force =     0.00000041   -0.04088620   -4.57961604
     atom    8 type  1   force =     0.00000013   -0.20707226   -8.12033665
     atom    9 type  1   force =     0.00000154   -0.33051741    6.90947033
     atom   10 type  1   force =     0.00000116    0.12397294    2.96947207
     atom   11 type  1   force =     0.00000001    0.04089063    4.57963248
     atom   12 type  1   force =     0.00000001    0.02655869    1.26135590
     atom   13 type  1   force =     0.00000002   -0.12398122   -2.96952542
     atom   14 type  1   force =     0.00000001    0.33051181   -6.90945605
     atom   15 type  1   force =     0.00000000    0.20708527    8.12032022
     atom   16 type  1   force =    -0.00000343   -0.02656217   -1.26131495
     atom   17 type  1   force =    -0.00000041   -0.04088619   -4.57961602
     atom   18 type  1   force =    -0.00000013   -0.20707225   -8.12033662
     atom   19 type  1   force =    -0.00000154   -0.33051741    6.90947031
     atom   20 type  1   force =    -0.00000115    0.12397294    2.96947202
     The local contribution  to forces
     atom    1 type  1   force =     0.00000349   -0.04857105   -4.68297194
     atom    2 type  1   force =     0.00000348   -0.02758455   -1.26482386
     atom    3 type  1   force =     0.00000291    0.12748238    2.98487286
     atom    4 type  1   force =     0.00000408   -0.37997903    7.01150492
     atom    5 type  1   force =     0.00000408   -0.24027244   -8.15561475
     atom    6 type  1   force =     0.00000119    0.02758400    1.26478370
     atom    7 type  1   force =     0.00000400    0.04857065    4.68295872
     atom    8 type  1   force =     0.00000456    0.24025836    8.15562718
     atom    9 type  1   force =     0.00000252    0.37998588   -7.01151600
     atom   10 type  1   force =     0.00000322   -0.12747347   -2.98481718
     atom   11 type  1   force =     0.00000442   -0.04857317   -4.68297457
     atom   12 type  1   force =     0.00000440   -0.02758159   -1.26482425
     atom   13 type  1   force =     0.00000557    0.12748064    2.98487050
     atom   14 type  1   force =     0.00000500   -0.37997924    7.01150270
     atom   15 type  1   force =     0.00000384   -0.24027155   -8.15561175
     atom   16 type  1   force =     0.00000820    0.02758458    1.26478431
     atom   17 type  1   force =     0.00000484    0.04857065    4.68295811
     atom   18 type  1   force =     0.00000486    0.24025895    8.15562600
     atom   19 type  1   force =     0.00000574    0.37998588   -7.01151540
     atom   20 type  1   force =     0.00000560   -0.12747347   -2.98481598
     The core correction contribution to forces
     atom    1 type  1   force =     0.00000000    0.00000000    0.00000000
     atom    2 type  1   force =     0.00000000    0.00000000    0.00000000
     atom    3 type  1   force =     0.00000000    0.00000000    0.00000000
     atom    4 type  1   force =     0.00000000    0.00000000    0.00000000
     atom    5 type  1   force =     0.00000000    0.00000000    0.00000000
     atom    6 type  1   force =     0.00000000    0.00000000    0.00000000
     atom    7 type  1   force =     0.00000000    0.00000000    0.00000000
     atom    8 type  1   force =     0.00000000    0.00000000    0.00000000
     atom    9 type  1   force =     0.00000000    0.00000000    0.00000000
     atom   10 type  1   force =     0.00000000    0.00000000    0.00000000
     atom   11 type  1   force =     0.00000000    0.00000000    0.00000000
     atom   12 type  1   force =     0.00000000    0.00000000    0.00000000
     atom   13 type  1   force =     0.00000000    0.00000000    0.00000000
     atom   14 type  1   force =     0.00000000    0.00000000    0.00000000
     atom   15 type  1   force =     0.00000000    0.00000000    0.00000000
     atom   16 type  1   force =     0.00000000    0.00000000    0.00000000
     atom   17 type  1   force =     0.00000000    0.00000000    0.00000000
     atom   18 type  1   force =     0.00000000    0.00000000    0.00000000
     atom   19 type  1   force =     0.00000000    0.00000000    0.00000000
     atom   20 type  1   force =     0.00000000    0.00000000    0.00000000
     The Hubbard contrib.    to forces
     atom    1 type  1   force =     0.00000000    0.00000000    0.00000000
     atom    2 type  1   force =     0.00000000    0.00000000    0.00000000
     atom    3 type  1   force =     0.00000000    0.00000000    0.00000000
     atom    4 type  1   force =     0.00000000    0.00000000    0.00000000
     atom    5 type  1   force =     0.00000000    0.00000000    0.00000000
     atom    6 type  1   force =     0.00000000    0.00000000    0.00000000
     atom    7 type  1   force =     0.00000000    0.00000000    0.00000000
     atom    8 type  1   force =     0.00000000    0.00000000    0.00000000
     atom    9 type  1   force =     0.00000000    0.00000000    0.00000000
     atom   10 type  1   force =     0.00000000    0.00000000    0.00000000
     atom   11 type  1   force =     0.00000000    0.00000000    0.00000000
     atom   12 type  1   force =     0.00000000    0.00000000    0.00000000
     atom   13 type  1   force =     0.00000000    0.00000000    0.00000000
     atom   14 type  1   force =     0.00000000    0.00000000    0.00000000
     atom   15 type  1   force =     0.00000000    0.00000000    0.00000000
     atom   16 type  1   force =     0.00000000    0.00000000    0.00000000
     atom   17 type  1   force =     0.00000000    0.00000000    0.00000000
     atom   18 type  1   force =     0.00000000    0.00000000    0.00000000
     atom   19 type  1   force =     0.00000000    0.00000000    0.00000000
     atom   20 type  1   force =     0.00000000    0.00000000    0.00000000
     The SCF correction term to forces
     atom    1 type  1   force =    -0.00000000   -0.00000000   -0.00000300
     atom    2 type  1   force =     0.00000000   -0.00000046    0.00000793
     atom    3 type  1   force =     0.00000000   -0.00000125    0.00002246
     atom    4 type  1   force =     0.00000000   -0.00000131    0.00000110
     atom    5 type  1   force =     0.00000000   -0.00002132   -0.00000372
     atom    6 type  1   force =    -0.00000000    0.00000045   -0.00000780
     atom    7 type  1   force =    -0.00000001   -0.00000003    0.00000314
     atom    8 type  1   force =    -0.00000001    0.00002122    0.00000363
     atom    9 type  1   force =     0.00000000    0.00000110   -0.00000111
     atom   10 type  1   force =     0.00000000    0.00000128   -0.00002232
     atom   11 type  1   force =     0.00000000   -0.00000000   -0.00000298
     atom   12 type  1   force =     0.00000000   -0.00000046    0.00000793
     atom   13 type  1   force =     0.00000000   -0.00000125    0.00002246
     atom   14 type  1   force =     0.00000000   -0.00000131    0.00000110
     atom   15 type  1   force =     0.00000000   -0.00002131   -0.00000372
     atom   16 type  1   force =     0.00000000    0.00000045   -0.00000780
     atom   17 type  1   force =     0.00000001   -0.00000003    0.00000314
     atom   18 type  1   force =     0.00000001    0.00002122    0.00000363
     atom   19 type  1   force =    -0.00000000    0.00000110   -0.00000111
     atom   20 type  1   force =    -0.00000000    0.00000128   -0.00002232

     Total force =     0.001401     Total SCF correction =     0.000065
     Energy error            =      8.8E-06 Ry
     Gradient error          =      3.9E-04 Ry/Bohr

     bfgs converged in  50 scf cycles and  39 bfgs steps
     (criteria: energy <  1.0E-05 Ry, force <  3.9E-04 Ry/Bohr)

     End of BFGS Geometry Optimization

     Final energy             =    -300.8544682619 Ry

     File ./Li/Lithium.bfgs deleted, as requested
Begin final coordinates

ATOMIC_POSITIONS (angstrom)
Li              -0.0000000600        3.1644437143       25.3744290441
Li              -0.0000000600        6.0565576832       24.1239947003
Li              -0.0000000500        1.6087638198       22.3788343243
Li              -0.0000000700        4.2350940141       20.6443303583
Li              -0.0000000700        0.8560031946       27.6177047437
Li               1.7175769841        3.9290883054       23.0921712526
Li               1.7175779046        6.8211711849       21.8417254932
Li               1.7175779883        1.4483202033       19.5984296188
Li               1.7175766548        5.7505088839       26.5718401454
Li               1.7175763279        0.6956418593       24.8372918153
Li               3.4351561700        3.1644424216       25.3744311783
Li               3.4351561700        6.0565609019       24.1239945359
Li               3.4351561500        1.6087626859       22.3788346804
Li               3.4351561600        4.2350927391       20.6443307251
Li               3.4351561800        0.8559976646       27.6177009223
Li               5.1527353459        3.9290882954       23.0921712426
Li               5.1527344354        6.8211711849       21.8417255032
Li               5.1527343417        1.4483201933       19.5984296387
Li               5.1527356952        5.7505088839       26.5718401354
Li               5.1527360121        0.6956418593       24.8372917953
End final coordinates

     Writing all to output data dir ./Li/Lithium.save/ :
     XML data file

     General routines

     Parallel routines

     PAW routines

     Environ routines

   This run was terminated on:  17:46:59   6Jan2025

   JOB DONE.