     Program PWSCF v.7.4 starts on 25Dec2024 at 19:32: 5

     Reading input from espresso.pwi
Warning: card &CELL ignored
Warning: card    PRESS_CONV_THR   = 0.1 ignored
Warning: card    CELL_DOFREE      = 'ALL' ignored
Warning: card / ignored
Warning: card &FCP ignored
Warning: card / ignored
Warning: card &RISM ignored
Warning: card / ignored

     Current dimensions of program PWSCF are:
     Max number of different atomic species (ntypx) = 10
     Max number of k-points (npk) =  40000
     Max angular momentum in pseudopotentials (lmaxx) =  4

     IMPORTANT: XC functional enforced from input :
     Exchange-correlation= PBE
                           (   1   4   3   4   0   0   0)
     Any further DFT definition will be discarded
     Please, verify this is what you really want

     Reading input from environ.in:
     * using ionic solvent mode
     * setting boundary derivatives method to SSCS default
     * setting electrolyte-boundary derivatives method to SSCS default

Environ Warning (1001): card EOF ignored

     Found identity + (  0.0000  0.5000 -0.0000) symmetry
     This is a supercell, fractional translations are disabled

     R & G space division:  proc/nbgrp/npool/nimage =     192
     Subspace diagonalization in iterative solution of the eigenvalue problem:
     a serial algorithm will be used

     Using Slab Decomposition

     bravais-lattice index     =            6
     lattice parameter (alat)  =      12.9830  a.u.
     unit-cell volume          =   16640.2905 (a.u.)^3
     number of atoms/cell      =           32
     number of atomic types    =            1
     number of electrons       =        96.00
     number of Kohn-Sham states=           72
     kinetic-energy cutoff     =      80.0000  Ry
     charge density cutoff     =     800.0000  Ry
     scf convergence threshold =      1.0E-14
     mixing beta               =       0.2000
     number of iterations used =            8  local-TF  mixing
     Exchange-correlation= PBE
                           (   1   4   3   4   0   0   0)

                                  Environ Setup Summary

          O. Andreussi, I. Dabo and N. Marzari, J. Chem. Phys. 136, 064102 (2012)
          F. Nattino, M. Truscott, N. Marzari, and O. Andreussi, J. Chem. Phys. 150, 041722 (2019)

     in publications or presentations arising from this work.

     Parameters

     compensation onset threshold      =               0.1000E+00
     static permittivity               =                    89.90
     surface tension in input (dyn/cm) =                    37.30
     surface tension in internal units =               0.4792E-04

     Solvent Boundary

     solvent mode                      =                    ionic
     derivatives method                =                   lowmem
     electrolyte derivatives method    =                   lowmem
     numerical core for derivatives    =                      fft
     switching function adopted        =                     SCCS
     density limit for vacuum region   =               0.5000E-02
     density limit for bulk solvent    =               0.1000E-03
     soft-sphere radius mode           =                    bondi
     soft-sphere softness              =                     0.50
     alpha                             =                     1.32

     Electrostatic Setup

     electrostatic problem to solve    =                    modpb
     numerical solver adopted          =                   newton
     type of auxiliary density adopted =                     none
     numerical core for poisson        =                      fft
     adopting a nested solver scheme
     inner solver                      =                       cg
     inner core                        =                      fft
     type of pbc corrections           =                parabolic
     numerical core for corrections    =                      1da

     celldm(1)=  12.983009  celldm(2)=   0.000000  celldm(3)=   7.603873
     celldm(4)=   0.000000  celldm(5)=   0.000000  celldm(6)=   0.000000

     crystal axes: (cart. coord. in units of alat)
               a(1) = (   1.000000   0.000000   0.000000 )
               a(2) = (   0.000000   1.000000   0.000000 )
               a(3) = (   0.000000   0.000000   7.603873 )

     reciprocal axes: (cart. coord. in units 2 pi/alat)
               b(1) = (  1.000000  0.000000  0.000000 )
               b(2) = (  0.000000  1.000000  0.000000 )
               b(3) = (  0.000000  0.000000  0.131512 )

     PseudoPot. # 1 for Li read from file:
     /home/ba3g18/Repos/Pseudopotentials/pslibrary.1.0.0/pbe/PSEUDOPOTENTIALS/Li.pbe-sl-kjpaw_psl.1.0.0.UPF
     MD5 check sum: 3f4d2cafebb47c6c3aa8ed472e6f074d
     Pseudo is Projector augmented-wave, Zval =  3.0
     Generated using 'atomic' code by A. Dal Corso  v.7.4
     Shape of augmentation charge: PSQ
     Using radial grid of 1017 points,  4 beta functions with:
                l(1) =   0
                l(2) =   0
                l(3) =   1
                l(4) =   1
     Q(r) pseudized with 0 coefficients

     atomic species   valence    mass     pseudopotential
     Li                3.00     6.94000     Li( 1.00)

      8 Sym. Ops. (no inversion) found

                                    s                        frac. trans.

      isym =  1     identity

 cryst.   s( 1) = (     1          0          0      )
                  (     0          1          0      )
                  (     0          0          1      )

 cart.    s( 1) = (  1.0000000  0.0000000  0.0000000 )
                  (  0.0000000  1.0000000  0.0000000 )
                  (  0.0000000  0.0000000  1.0000000 )

      isym =  2     180 deg rotation - cart. axis [0,0,1]

[...]

      isym =  4      90 deg rotation - cart. axis [0,0,1]

[...]

      isym =  5     inv. 180 deg rotation - cart. axis [0,1,0]

[...]

      isym =  8     inv. 180 deg rotation - cart. axis [1,-1,0]

 cryst.   s( 8) = (     0          1          0      )
                  (     1          0          0      )
                  (     0          0          1      )

 cart.    s( 8) = (  0.0000000  1.0000000  0.0000000 )
                  (  1.0000000  0.0000000  0.0000000 )
                  (  0.0000000  0.0000000  1.0000000 )

     point group C_4v (4mm)
     there are  5 classes
     the character table:

       E     2C4   C2    2s_v  2s_d
A_1    1.00  1.00  1.00  1.00  1.00
A_2    1.00  1.00  1.00 -1.00 -1.00
B_1    1.00 -1.00  1.00  1.00 -1.00
B_2    1.00 -1.00  1.00 -1.00  1.00
E      2.00  0.00 -2.00  0.00  0.00

     the symmetry operations in each class and the name of the first element:

     E        1
          identity
     2C4      3    4
           90 deg rotation - cart. axis [0,0,-1]
     C2       2
          180 deg rotation - cart. axis [0,0,1]
     2s_v     5    6
          inv. 180 deg rotation - cart. axis [0,1,0]
     2s_d     7    8
          inv. 180 deg rotation - cart. axis [1,1,0]

   Cartesian axes

     site n.     atom                  positions (alat units)
         1        Li     tau(   1) = (  -0.0000000  -0.0000000   3.1811092  )
         2        Li     tau(   2) = (   0.2500007   0.2500007   2.9187751  )
         3        Li     tau(   3) = (  -0.0000000  -0.0000000   3.6748013  )
         4        Li     tau(   4) = (   0.2499991   0.2499991   3.4273966  )
         5        Li     tau(   5) = (  -0.0000000  -0.0000000   4.1764888  )
         6        Li     tau(   6) = (   0.2499999   0.2499999   3.9290749  )
         7        Li     tau(   7) = (  -0.0000000  -0.0000000   4.6851287  )
         8        Li     tau(   8) = (   0.2499998   0.2499998   4.4227863  )
         9        Li     tau(   9) = (  -0.0000000   0.5000000   3.1811089  )
        10        Li     tau(  10) = (   0.2500007   0.7499993   2.9187751  )
        11        Li     tau(  11) = (  -0.0000000   0.5000000   3.6748014  )
        12        Li     tau(  12) = (   0.2499991   0.7500009   3.4273966  )
        13        Li     tau(  13) = (  -0.0000000   0.5000000   4.1764934  )
        14        Li     tau(  14) = (   0.2499999   0.7500001   3.9290749  )
        15        Li     tau(  15) = (  -0.0000000   0.5000000   4.6851258  )
        16        Li     tau(  16) = (   0.2499998   0.7500002   4.4227863  )
        17        Li     tau(  17) = (   0.5000000  -0.0000000   3.1811089  )
        18        Li     tau(  18) = (   0.7499993   0.2500007   2.9187751  )
        19        Li     tau(  19) = (   0.5000000  -0.0000000   3.6748014  )
        20        Li     tau(  20) = (   0.7500009   0.2499991   3.4273966  )
        21        Li     tau(  21) = (   0.5000000  -0.0000000   4.1764934  )
        22        Li     tau(  22) = (   0.7500001   0.2499999   3.9290749  )
        23        Li     tau(  23) = (   0.5000000  -0.0000000   4.6851258  )
        24        Li     tau(  24) = (   0.7500002   0.2499998   4.4227863  )
        25        Li     tau(  25) = (   0.5000000   0.5000000   3.1811098  )
        26        Li     tau(  26) = (   0.7499993   0.7499993   2.9187751  )
        27        Li     tau(  27) = (   0.5000000   0.5000000   3.6748033  )
        28        Li     tau(  28) = (   0.7500009   0.7500009   3.4273966  )
        29        Li     tau(  29) = (   0.5000000   0.5000000   4.1764997  )
        30        Li     tau(  30) = (   0.7500001   0.7500001   3.9290749  )
        31        Li     tau(  31) = (   0.5000000   0.5000000   4.6851226  )
        32        Li     tau(  32) = (   0.7500002   0.7500002   4.4227863  )

   Crystallographic axes

     site n.     atom                  positions (cryst. coord.)
         1        Li     tau(   1) = ( -0.0000000 -0.0000000  0.4183538  )
         2        Li     tau(   2) = (  0.2500007  0.2500007  0.3838538  )
         3        Li     tau(   3) = ( -0.0000000 -0.0000000  0.4832802  )
         4        Li     tau(   4) = (  0.2499991  0.2499991  0.4507436  )
         5        Li     tau(   5) = ( -0.0000000 -0.0000000  0.5492581  )
         6        Li     tau(   6) = (  0.2499999  0.2499999  0.5167203  )
         7        Li     tau(   7) = ( -0.0000000 -0.0000000  0.6161503  )
         8        Li     tau(   8) = (  0.2499998  0.2499998  0.5816492  )
         9        Li     tau(   9) = ( -0.0000000  0.5000000  0.4183538  )
        10        Li     tau(  10) = (  0.2500007  0.7499993  0.3838538  )
        11        Li     tau(  11) = ( -0.0000000  0.5000000  0.4832802  )
        12        Li     tau(  12) = (  0.2499991  0.7500009  0.4507436  )
        13        Li     tau(  13) = ( -0.0000000  0.5000000  0.5492587  )
        14        Li     tau(  14) = (  0.2499999  0.7500001  0.5167203  )
        15        Li     tau(  15) = ( -0.0000000  0.5000000  0.6161500  )
        16        Li     tau(  16) = (  0.2499998  0.7500002  0.5816492  )
        17        Li     tau(  17) = (  0.5000000 -0.0000000  0.4183538  )
        18        Li     tau(  18) = (  0.7499993  0.2500007  0.3838538  )
        19        Li     tau(  19) = (  0.5000000 -0.0000000  0.4832802  )
        20        Li     tau(  20) = (  0.7500009  0.2499991  0.4507436  )
[...]
     atom   12 type  1   force =     0.00000037   -0.00000037   -0.00000376
     atom   13 type  1   force =     0.00000000    0.00000000    0.00000237
     atom   14 type  1   force =     0.00000042   -0.00000042   -0.00000698
     atom   15 type  1   force =     0.00000000    0.00000000    0.00000044
     atom   16 type  1   force =    -0.00000070    0.00000070    0.00000119
     atom   17 type  1   force =     0.00000000    0.00000000   -0.00000109
     atom   18 type  1   force =     0.00000015   -0.00000015   -0.00000148
     atom   19 type  1   force =     0.00000000    0.00000000    0.00000968
     atom   20 type  1   force =    -0.00000037    0.00000037   -0.00000376
     atom   21 type  1   force =     0.00000000    0.00000000    0.00000237
     atom   22 type  1   force =    -0.00000042    0.00000042   -0.00000698
     atom   23 type  1   force =     0.00000000    0.00000000    0.00000044
     atom   24 type  1   force =     0.00000070   -0.00000070    0.00000119
     atom   25 type  1   force =     0.00000000    0.00000000   -0.00000088
     atom   26 type  1   force =     0.00000015    0.00000015   -0.00000148
     atom   27 type  1   force =     0.00000000    0.00000000    0.00000881
     atom   28 type  1   force =    -0.00000037   -0.00000037   -0.00000376
     atom   29 type  1   force =     0.00000000    0.00000000    0.00000032
     atom   30 type  1   force =    -0.00000042   -0.00000042   -0.00000698
     atom   31 type  1   force =     0.00000000    0.00000000    0.00000101
     atom   32 type  1   force =     0.00000070    0.00000070    0.00000119
     The non-local contrib.  to forces
     atom    1 type  1   force =     0.00000000    0.00000000   -0.00194452
     atom    2 type  1   force =    -0.00000035   -0.00000035   -0.06770756
     atom    3 type  1   force =     0.00000000    0.00000000    0.00008125
     atom    4 type  1   force =     0.00000056    0.00000056    0.00018325
     atom    5 type  1   force =     0.00000000    0.00000000   -0.00018363
     atom    6 type  1   force =     0.00000071    0.00000071   -0.00007735
     atom    7 type  1   force =     0.00000000    0.00000000    0.06770691
     atom    8 type  1   force =    -0.00000108   -0.00000108    0.00194225
     atom    9 type  1   force =     0.00000000    0.00000000   -0.00194355
     atom   10 type  1   force =    -0.00000035    0.00000035   -0.06770756
     atom   11 type  1   force =     0.00000000    0.00000000    0.00008128
     atom   12 type  1   force =     0.00000056   -0.00000056    0.00018325
     atom   13 type  1   force =     0.00000000    0.00000000   -0.00018475
     atom   14 type  1   force =     0.00000071   -0.00000071   -0.00007735
     atom   15 type  1   force =     0.00000000    0.00000000    0.06770721
     atom   16 type  1   force =    -0.00000108    0.00000108    0.00194225
     atom   17 type  1   force =     0.00000000    0.00000000   -0.00194355
     atom   18 type  1   force =     0.00000035   -0.00000035   -0.06770756
     atom   19 type  1   force =     0.00000000    0.00000000    0.00008128
     atom   20 type  1   force =    -0.00000056    0.00000056    0.00018325
     atom   21 type  1   force =     0.00000000    0.00000000   -0.00018475
     atom   22 type  1   force =    -0.00000071    0.00000071   -0.00007735
     atom   23 type  1   force =     0.00000000    0.00000000    0.06770721
     atom   24 type  1   force =     0.00000108   -0.00000108    0.00194225
     atom   25 type  1   force =     0.00000000    0.00000000   -0.00194241
     atom   26 type  1   force =     0.00000035    0.00000035   -0.06770756
     atom   27 type  1   force =     0.00000000    0.00000000    0.00008161
     atom   28 type  1   force =    -0.00000056   -0.00000056    0.00018325
     atom   29 type  1   force =     0.00000000    0.00000000   -0.00018572
     atom   30 type  1   force =    -0.00000071   -0.00000071   -0.00007735
     atom   31 type  1   force =     0.00000000    0.00000000    0.06770781
     atom   32 type  1   force =     0.00000108    0.00000108    0.00194225
     The ionic contribution  to forces
     atom    1 type  1   force =    -0.00000001   -0.00000001   -9.88088677
     atom    2 type  1   force =    -0.00000490   -0.00000490  -13.52426888
     atom    3 type  1   force =    -0.00000001   -0.00000001   -1.98780294
     atom    4 type  1   force =     0.00001245    0.00001245   -5.94150037
     atom    5 type  1   force =    -0.00000000   -0.00000000    5.94148825
     atom    6 type  1   force =     0.00001309    0.00001309    1.98783613
     atom    7 type  1   force =    -0.00000001   -0.00000001   13.52423869
     atom    8 type  1   force =    -0.00001798   -0.00001798    9.88084170
     atom    9 type  1   force =    -0.00000001    0.00000001   -9.88087502
     atom   10 type  1   force =    -0.00000490    0.00000490  -13.52426885
     atom   11 type  1   force =    -0.00000001    0.00000001   -1.98780286
     atom   12 type  1   force =     0.00001245   -0.00001245   -5.94150039
     atom   13 type  1   force =    -0.00000000   -0.00000000    5.94152742
     atom   14 type  1   force =     0.00001309   -0.00001308    1.98783612
     atom   15 type  1   force =    -0.00000001    0.00000001   13.52422726
     atom   16 type  1   force =    -0.00001798    0.00001799    9.88084173
     atom   17 type  1   force =     0.00000001   -0.00000001   -9.88087502
     atom   18 type  1   force =     0.00000490   -0.00000490  -13.52426885
     atom   19 type  1   force =     0.00000001   -0.00000001   -1.98780286
     atom   20 type  1   force =    -0.00001245    0.00001245   -5.94150039
     atom   21 type  1   force =    -0.00000000   -0.00000000    5.94152742
     atom   22 type  1   force =    -0.00001308    0.00001309    1.98783612
     atom   23 type  1   force =     0.00000001   -0.00000001   13.52422726
     atom   24 type  1   force =     0.00001799   -0.00001798    9.88084173
     atom   25 type  1   force =     0.00000001    0.00000001   -9.88084824
     atom   26 type  1   force =     0.00000490    0.00000490  -13.52426883
     atom   27 type  1   force =     0.00000001    0.00000001   -1.98778075
     atom   28 type  1   force =    -0.00001245   -0.00001245   -5.94150039
     atom   29 type  1   force =    -0.00000000   -0.00000000    5.94158819
     atom   30 type  1   force =    -0.00001308   -0.00001308    1.98783611
     atom   31 type  1   force =     0.00000001    0.00000001   13.52421558
     atom   32 type  1   force =     0.00001799    0.00001799    9.88084174
     The local contribution  to forces
     atom    1 type  1   force =     0.00000407    0.00000407    9.87505068
     atom    2 type  1   force =     0.00000967    0.00000967   13.59157991
     atom    3 type  1   force =     0.00000407    0.00000407    1.98626951
     atom    4 type  1   force =    -0.00000799   -0.00000799    5.93729763
     atom    5 type  1   force =     0.00000407    0.00000407   -5.93729031
     atom    6 type  1   force =    -0.00000902   -0.00000902   -1.98630914
     atom    7 type  1   force =     0.00000350    0.00000350  -13.59155433
     atom    8 type  1   force =     0.00002282    0.00002282   -9.87500798
     atom    9 type  1   force =     0.00000407    0.00000499    9.87503866
     atom   10 type  1   force =     0.00000967   -0.00000025   13.59157871
     atom   11 type  1   force =     0.00000407    0.00000441    1.98626907
     atom   12 type  1   force =    -0.00000799    0.00001738    5.93729823
     atom   13 type  1   force =     0.00000407    0.00000382   -5.93732973
     atom   14 type  1   force =    -0.00000902    0.00001783   -1.98630914
     atom   15 type  1   force =     0.00000350    0.00000442  -13.59154224
     atom   16 type  1   force =     0.00002282   -0.00001401   -9.87500859
     atom   17 type  1   force =     0.00000499    0.00000407    9.87503866
     atom   18 type  1   force =    -0.00000025    0.00000967   13.59157871
     atom   19 type  1   force =     0.00000441    0.00000407    1.98626907
     atom   20 type  1   force =     0.00001738   -0.00000799    5.93729823
     atom   21 type  1   force =     0.00000382    0.00000407   -5.93732973
     atom   22 type  1   force =     0.00001783   -0.00000902   -1.98630914
     atom   23 type  1   force =     0.00000442    0.00000350  -13.59154224
     atom   24 type  1   force =    -0.00001401    0.00002282   -9.87500859
     atom   25 type  1   force =     0.00000499    0.00000499    9.87501102
     atom   26 type  1   force =    -0.00000025   -0.00000025   13.59157811
     atom   27 type  1   force =     0.00000441    0.00000441    1.98624577
     atom   28 type  1   force =     0.00001738    0.00001738    5.93729823
     atom   29 type  1   force =     0.00000382    0.00000382   -5.93739147
     atom   30 type  1   force =     0.00001783    0.00001783   -1.98630914
     atom   31 type  1   force =     0.00000442    0.00000442  -13.59153000
     atom   32 type  1   force =    -0.00001401   -0.00001401   -9.87500859
     The core correction contribution to forces
     atom    1 type  1   force =     0.00000000    0.00000000    0.00000000
     atom    2 type  1   force =     0.00000000    0.00000000    0.00000000
     atom    3 type  1   force =     0.00000000    0.00000000    0.00000000
     atom    4 type  1   force =     0.00000000    0.00000000    0.00000000
     atom    5 type  1   force =     0.00000000    0.00000000    0.00000000
     atom    6 type  1   force =     0.00000000    0.00000000    0.00000000
     atom    7 type  1   force =     0.00000000    0.00000000    0.00000000
     atom    8 type  1   force =     0.00000000    0.00000000    0.00000000
     atom    9 type  1   force =     0.00000000    0.00000000    0.00000000
     atom   10 type  1   force =     0.00000000    0.00000000    0.00000000
     atom   11 type  1   force =     0.00000000    0.00000000    0.00000000
     atom   12 type  1   force =     0.00000000    0.00000000    0.00000000
     atom   13 type  1   force =     0.00000000    0.00000000    0.00000000
     atom   14 type  1   force =     0.00000000    0.00000000    0.00000000
     atom   15 type  1   force =     0.00000000    0.00000000    0.00000000
     atom   16 type  1   force =     0.00000000    0.00000000    0.00000000
     atom   17 type  1   force =     0.00000000    0.00000000    0.00000000
     atom   18 type  1   force =     0.00000000    0.00000000    0.00000000
     atom   19 type  1   force =     0.00000000    0.00000000    0.00000000
     atom   20 type  1   force =     0.00000000    0.00000000    0.00000000
     atom   21 type  1   force =     0.00000000    0.00000000    0.00000000
     atom   22 type  1   force =     0.00000000    0.00000000    0.00000000
     atom   23 type  1   force =     0.00000000    0.00000000    0.00000000
     atom   24 type  1   force =     0.00000000    0.00000000    0.00000000
     atom   25 type  1   force =     0.00000000    0.00000000    0.00000000
     atom   26 type  1   force =     0.00000000    0.00000000    0.00000000
     atom   27 type  1   force =     0.00000000    0.00000000    0.00000000
     atom   28 type  1   force =     0.00000000    0.00000000    0.00000000
     atom   29 type  1   force =     0.00000000    0.00000000    0.00000000
     atom   30 type  1   force =     0.00000000    0.00000000    0.00000000
     atom   31 type  1   force =     0.00000000    0.00000000    0.00000000
     atom   32 type  1   force =     0.00000000    0.00000000    0.00000000
     The Hubbard contrib.    to forces
     atom    1 type  1   force =     0.00000000    0.00000000    0.00000000
     atom    2 type  1   force =     0.00000000    0.00000000    0.00000000
     atom    3 type  1   force =     0.00000000    0.00000000    0.00000000
     atom    4 type  1   force =     0.00000000    0.00000000    0.00000000
     atom    5 type  1   force =     0.00000000    0.00000000    0.00000000
     atom    6 type  1   force =     0.00000000    0.00000000    0.00000000
     atom    7 type  1   force =     0.00000000    0.00000000    0.00000000
     atom    8 type  1   force =     0.00000000    0.00000000    0.00000000
     atom    9 type  1   force =     0.00000000    0.00000000    0.00000000
     atom   10 type  1   force =     0.00000000    0.00000000    0.00000000
     atom   11 type  1   force =     0.00000000    0.00000000    0.00000000
     atom   12 type  1   force =     0.00000000    0.00000000    0.00000000
     atom   13 type  1   force =     0.00000000    0.00000000    0.00000000
     atom   14 type  1   force =     0.00000000    0.00000000    0.00000000
     atom   15 type  1   force =     0.00000000    0.00000000    0.00000000
     atom   16 type  1   force =     0.00000000    0.00000000    0.00000000
     atom   17 type  1   force =     0.00000000    0.00000000    0.00000000
     atom   18 type  1   force =     0.00000000    0.00000000    0.00000000
     atom   19 type  1   force =     0.00000000    0.00000000    0.00000000
     atom   20 type  1   force =     0.00000000    0.00000000    0.00000000
     atom   21 type  1   force =     0.00000000    0.00000000    0.00000000
     atom   22 type  1   force =     0.00000000    0.00000000    0.00000000
     atom   23 type  1   force =     0.00000000    0.00000000    0.00000000
     atom   24 type  1   force =     0.00000000    0.00000000    0.00000000
     atom   25 type  1   force =     0.00000000    0.00000000    0.00000000
     atom   26 type  1   force =     0.00000000    0.00000000    0.00000000
     atom   27 type  1   force =     0.00000000    0.00000000    0.00000000
     atom   28 type  1   force =     0.00000000    0.00000000    0.00000000
     atom   29 type  1   force =     0.00000000    0.00000000    0.00000000
     atom   30 type  1   force =     0.00000000    0.00000000    0.00000000
     atom   31 type  1   force =     0.00000000    0.00000000    0.00000000
     atom   32 type  1   force =     0.00000000    0.00000000    0.00000000
     The SCF correction term to forces
     atom    1 type  1   force =    -0.00000000    0.00000000    0.00000000
     atom    2 type  1   force =     0.00000000    0.00000000    0.00000000
     atom    3 type  1   force =     0.00000000    0.00000000   -0.00000002
     atom    4 type  1   force =    -0.00000001   -0.00000001    0.00000000
     atom    5 type  1   force =     0.00000000    0.00000000   -0.00000000
     atom    6 type  1   force =     0.00000000    0.00000000   -0.00000000
     atom    7 type  1   force =    -0.00000000   -0.00000000    0.00000001
     atom    8 type  1   force =    -0.00000001   -0.00000001   -0.00000000
     atom    9 type  1   force =     0.00000000    0.00000000   -0.00000001
     atom   10 type  1   force =     0.00000000   -0.00000000    0.00000000
     atom   11 type  1   force =     0.00000000   -0.00000000    0.00000001
     atom   12 type  1   force =    -0.00000001    0.00000001    0.00000000
     atom   13 type  1   force =     0.00000000    0.00000000    0.00000000
     atom   14 type  1   force =     0.00000000   -0.00000000   -0.00000000
     atom   15 type  1   force =     0.00000000   -0.00000000    0.00000002
     atom   16 type  1   force =    -0.00000001    0.00000001   -0.00000000
     atom   17 type  1   force =    -0.00000000    0.00000000   -0.00000001
     atom   18 type  1   force =    -0.00000000    0.00000000    0.00000000
     atom   19 type  1   force =    -0.00000000    0.00000000    0.00000001
     atom   20 type  1   force =     0.00000001   -0.00000001    0.00000000
     atom   21 type  1   force =     0.00000000   -0.00000000    0.00000000
     atom   22 type  1   force =    -0.00000000    0.00000000   -0.00000000
     atom   23 type  1   force =    -0.00000000   -0.00000000    0.00000002
     atom   24 type  1   force =     0.00000001   -0.00000001   -0.00000000
     atom   25 type  1   force =    -0.00000000    0.00000000    0.00000002
     atom   26 type  1   force =    -0.00000000   -0.00000000    0.00000000
     atom   27 type  1   force =     0.00000000   -0.00000000    0.00000001
     atom   28 type  1   force =     0.00000001    0.00000001    0.00000000
     atom   29 type  1   force =    -0.00000000    0.00000000   -0.00000001
     atom   30 type  1   force =    -0.00000000   -0.00000000   -0.00000000
     atom   31 type  1   force =     0.00000000   -0.00000000   -0.00000001
     atom   32 type  1   force =     0.00000001    0.00000001   -0.00000000

     Total force =     0.000026     Total SCF correction =     0.000000
     Message from routine punch:
     Nothing written, as per user request (disk_io='none')

     General routines

     Parallel routines

     PAW routines

     Environ routines

   This run was terminated on:  20: 4: 0  25Dec2024

   JOB DONE.