     Program PWSCF v.7.4 starts on 23Jan2025 at  0:35:55

     Reading input from espresso.pwi
Warning: card &CELL ignored
Warning: card    PRESS_CONV_THR   = 0.1 ignored
Warning: card    CELL_DOFREE      = 'ALL' ignored
Warning: card / ignored
Warning: card &FCP ignored
Warning: card / ignored
Warning: card &RISM ignored
Warning: card / ignored

     Current dimensions of program PWSCF are:
     Max number of different atomic species (ntypx) = 10
     Max number of k-points (npk) =  40000
     Max angular momentum in pseudopotentials (lmaxx) =  4

     IMPORTANT: XC functional enforced from input :
     Exchange-correlation= PBE
                           (   1   4   3   4   0   0   0)
     Any further DFT definition will be discarded
     Please, verify this is what you really want

     Message from routine setup:
     using ibrav=0 with symmetry is DISCOURAGED, use correct ibrav instead

     K-points division:     npool     =       3
     R & G space division:  proc/nbgrp/npool/nimage =     128
     Subspace diagonalization in iterative solution of the eigenvalue problem:
     a serial algorithm will be used

     Using Slab Decomposition

     bravais-lattice index     =            0
     lattice parameter (alat)  =      18.3607  a.u.
     unit-cell volume          =   12036.1829 (a.u.)^3
     number of atoms/cell      =           44
     number of atomic types    =            1
     number of electrons       =       132.00
     number of Kohn-Sham states=           99
     kinetic-energy cutoff     =      80.0000  Ry
     charge density cutoff     =     800.0000  Ry
     scf convergence threshold =      1.0E-06
     mixing beta               =       0.2000
     number of iterations used =            8  local-TF  mixing
     energy convergence thresh.=      1.0E-05
     force convergence thresh. =      3.9E-04
     Exchange-correlation= PBE
                           (   1   4   3   4   0   0   0)
     nstep                     =           50

     celldm(1)=  18.360747  celldm(2)=   0.000000  celldm(3)=   0.000000
     celldm(4)=   0.000000  celldm(5)=   0.000000  celldm(6)=   0.000000

     crystal axes: (cart. coord. in units of alat)
               a(1) = (   1.000000   0.000000   0.000000 )
               a(2) = (   0.000000   0.586302   0.000000 )
               a(3) = (   0.000000   0.000000   3.316625 )

     reciprocal axes: (cart. coord. in units 2 pi/alat)
               b(1) = (  1.000000  0.000000  0.000000 )
               b(2) = (  0.000000  1.705606  0.000000 )
               b(3) = (  0.000000  0.000000  0.301511 )

     PseudoPot. # 1 for Li read from file:
     /iridisfs/home/ba3g18/Repos/Pseudopotentials/pslibrary.1.0.0/pbe/PSEUDOPOTENTIALS/Li.pbe-sl-kjpaw_psl.1.0.0.UPF
     MD5 check sum: 3f4d2cafebb47c6c3aa8ed472e6f074d
     Pseudo is Projector augmented-wave, Zval =  3.0
     Generated using 'atomic' code by A. Dal Corso  v.7.4
     Shape of augmentation charge: PSQ
     Using radial grid of 1017 points,  4 beta functions with:
                l(1) =   0
                l(2) =   0
                l(3) =   1
                l(4) =   1
     Q(r) pseudized with 0 coefficients

     atomic species   valence    mass     pseudopotential
     Li                3.00     6.94000     Li( 1.00)

      2 Sym. Ops. (no inversion) found

   Cartesian axes

     site n.     atom                  positions (alat units)
         1        Li     tau(   1) = (   0.5000000   0.5681958   2.4460629  )
         2        Li     tau(   2) = (   0.2500009   0.4445031   0.8705625  )
         3        Li     tau(   3) = (   0.2500000   0.1095617   1.0490089  )
         4        Li     tau(   4) = (   0.5000000   0.2221545   0.9202354  )
         5        Li     tau(   5) = (  -0.0000000   0.5084145   1.0637969  )
         6        Li     tau(   6) = (   0.5000000   0.1953567   1.2316546  )
         7        Li     tau(   7) = (   0.2500001   0.3236703   1.4688136  )
         8        Li     tau(   8) = (   0.2499997   0.5881637   1.6398887  )
         9        Li     tau(   9) = (   0.2499997   0.3792850   1.1661484  )
        10        Li     tau(  10) = (   0.2500002   0.0503945   1.3404779  )
        11        Li     tau(  11) = (  -0.0000000   0.4699334   1.3729517  )
        12        Li     tau(  12) = (   0.5000000   0.1505836   1.5407671  )
        13        Li     tau(  13) = (   0.5000000   0.4245400   1.6767357  )
        14        Li     tau(  14) = (   0.5000000   0.1027308   1.8478123  )
        15        Li     tau(  15) = (   0.2499999   0.5427701   1.9436734  )
        16        Li     tau(  16) = (   0.2499998   0.2310453   2.0849709  )
        17        Li     tau(  17) = (   0.2500003   0.2758176   1.7758591  )
        18        Li     tau(  18) = (  -0.0000000   0.3760070   1.9761483  )
        19        Li     tau(  19) = (   0.5000000   0.0471158   2.1504774  )
        20        Li     tau(  20) = (   0.5000000   0.3168412   2.2676114  )
        21        Li     tau(  21) = (   0.2499992   0.5042889   2.2528272  )
        22        Li     tau(  22) = (   0.2500047   0.2042465   2.3963893  )
        23        Li     tau(  23) = (   1.0000000   0.5682049   2.4460607  )
        24        Li     tau(  24) = (   0.7499991   0.4445031   0.8705625  )
        25        Li     tau(  25) = (   0.7500000   0.1095617   1.0490089  )
        26        Li     tau(  26) = (   1.0000000   0.2221552   0.9202345  )
        27        Li     tau(  27) = (   0.5000000   0.5084143   1.0637984  )
        28        Li     tau(  28) = (   1.0000000   0.1953561   1.2316533  )
        29        Li     tau(  29) = (   0.7499999   0.3236703   1.4688136  )
        30        Li     tau(  30) = (   0.7500003   0.5881637   1.6398887  )
        31        Li     tau(  31) = (   0.7500003   0.3792850   1.1661484  )
        32        Li     tau(  32) = (   0.7499998   0.0503945   1.3404779  )
        33        Li     tau(  33) = (   0.5000000   0.4699337   1.3729521  )
        34        Li     tau(  34) = (   1.0000000   0.1505838   1.5407654  )
        35        Li     tau(  35) = (   1.0000000   0.4245392   1.6767371  )
        36        Li     tau(  36) = (   1.0000000   0.1027317   1.8478111  )
        37        Li     tau(  37) = (   0.7500001   0.5427701   1.9436734  )
        38        Li     tau(  38) = (   0.7500002   0.2310453   2.0849709  )
        39        Li     tau(  39) = (   0.7499997   0.2758176   1.7758591  )
        40        Li     tau(  40) = (   0.5000000   0.3760073   1.9761447  )
        41        Li     tau(  41) = (   1.0000000   0.0471165   2.1504753  )
        42        Li     tau(  42) = (   1.0000000   0.3168381   2.2676189  )
        43        Li     tau(  43) = (   0.7500008   0.5042889   2.2528272  )
        44        Li     tau(  44) = (   0.7499953   0.2042465   2.3963893  )

     number of k points=    28  Marzari-Vanderbilt smearing, width (Ry)=  0.0100
                       cart. coord. in units 2pi/alat
        k(    1) = (   0.0000000   0.0000000   0.0000000), wk =   0.0238095
        k(    2) = (   0.0000000   0.1421338   0.0000000), wk =   0.0476190
        k(    3) = (   0.0000000   0.2842676   0.0000000), wk =   0.0476190
        k(    4) = (   0.0000000   0.4264014   0.0000000), wk =   0.0476190
        k(    5) = (   0.0000000   0.5685352   0.0000000), wk =   0.0476190
        k(    6) = (   0.0000000   0.7106690   0.0000000), wk =   0.0476190
        k(    7) = (   0.0000000  -0.8528028   0.0000000), wk =   0.0238095
        k(    8) = (   0.1428571   0.0000000   0.0000000), wk =   0.0476190
        k(    9) = (   0.1428571   0.1421338   0.0000000), wk =   0.0952381
        k(   10) = (   0.1428571   0.2842676   0.0000000), wk =   0.0952381
        k(   11) = (   0.1428571   0.4264014   0.0000000), wk =   0.0952381
        k(   12) = (   0.1428571   0.5685352   0.0000000), wk =   0.0952381
        k(   13) = (   0.1428571   0.7106690   0.0000000), wk =   0.0952381
        k(   14) = (   0.1428571  -0.8528028   0.0000000), wk =   0.0476190
        k(   15) = (   0.2857143   0.0000000   0.0000000), wk =   0.0476190
        k(   16) = (   0.2857143   0.1421338   0.0000000), wk =   0.0952381
        k(   17) = (   0.2857143   0.2842676   0.0000000), wk =   0.0952381
        k(   18) = (   0.2857143   0.4264014   0.0000000), wk =   0.0952381
        k(   19) = (   0.2857143   0.5685352   0.0000000), wk =   0.0952381
        k(   20) = (   0.2857143   0.7106690   0.0000000), wk =   0.0952381
        k(   21) = (   0.2857143  -0.8528028   0.0000000), wk =   0.0476190
        k(   22) = (   0.4285714   0.0000000   0.0000000), wk =   0.0476190
        k(   23) = (   0.4285714   0.1421338   0.0000000), wk =   0.0952381
        k(   24) = (   0.4285714   0.2842676   0.0000000), wk =   0.0952381
        k(   25) = (   0.4285714   0.4264014   0.0000000), wk =   0.0952381
        k(   26) = (   0.4285714   0.5685352   0.0000000), wk =   0.0952381
        k(   27) = (   0.4285714   0.7106690   0.0000000), wk =   0.0952381
        k(   28) = (   0.4285714  -0.8528028   0.0000000), wk =   0.0476190

     Initial potential from superposition of free atoms

     starting charge     131.7972, renormalised to     132.0000

     negative rho (up, down):  1.373E-03 0.000E+00
     Starting wfcs are  220 randomized atomic wfcs
     Checking if some PAW data can be deallocated...

     Self-consistent Calculation

     iteration #  1     ecut=    80.00 Ry     beta= 0.20
     Davidson diagonalization with overlap
     ethr =  1.00E-02,  avg # of iterations =  3.8

     negative rho (up, down):  2.834E-05 0.000E+00

     total energy              =    -661.87299853 Ry
     estimated scf accuracy    <       5.67240584 Ry

[...]

     iteration #  8     ecut=    80.00 Ry     beta= 0.20
     Davidson diagonalization with overlap
     c_bands:  3 eigenvalues not converged
     ethr =  3.61E-05,  avg # of iterations =  6.2

[...]

     iteration # 15     ecut=    80.00 Ry     beta= 0.20
     Davidson diagonalization with overlap
     c_bands:  1 eigenvalues not converged
     c_bands:  1 eigenvalues not converged
     ethr =  4.34E-07,  avg # of iterations = 12.3

[...]

     total energy              =    -661.67716097 Ry
     estimated scf accuracy    <       0.00000250 Ry

     iteration # 21     ecut=    80.00 Ry     beta= 0.20
     Davidson diagonalization with overlap
     ethr =  1.61E-09,  avg # of iterations =  2.0

     negative rho (up, down):  9.427E-05 0.000E+00

     End of self-consistent calculation

          k = 0.0000 0.0000 0.0000 (145443 PWs)   bands (ev):

   -48.4571 -48.4571 -48.4571 -48.4571 -48.1678 -48.1678 -48.1677 -48.1677
   -47.5147 -47.5147 -47.5145 -47.5145 -47.4435 -47.4435 -47.4430 -47.4430
   -47.4346 -47.4271 -47.4263 -47.4263 -47.4222 -47.4211 -47.4199 -47.4199
   -47.4189 -47.4189 -47.4180 -47.4169 -47.4156 -47.4155 -47.4131 -47.4112
   -47.4077 -47.4077 -47.4072 -47.4063 -47.3959 -47.3959 -47.3944 -47.3944
   -47.3943 -47.3943 -47.3917 -47.3916  -4.3716  -4.1206  -3.6971  -3.1823
    -3.1823  -3.1049  -2.9261  -2.9261  -2.4920  -2.4920  -2.3949  -1.8873
    -1.8873  -1.6339  -1.1651  -1.1651  -1.0611  -0.9408  -0.7380  -0.6244
    -0.5828  -0.5344  -0.5344  -0.5242  -0.4075  -0.4075  -0.2210  -0.2210
    -0.2124  -0.1728  -0.0734  -0.0259   0.2029   0.2029   0.3339   0.4396
     0.4655   0.4655   0.5729   0.7663   0.7721   0.7721   1.0346   1.1107
     1.2494   1.2494   1.6443   1.8589   1.8590   1.9982   1.9982   2.0955
     2.1802   2.2034   2.2035

[...]

          k = 0.4286-0.8528 0.0000 (145406 PWs)   bands (ev):

   -48.4571 -48.4571 -48.4571 -48.4571 -48.1678 -48.1678 -48.1678 -48.1677
   -47.5145 -47.5145 -47.5144 -47.5144 -47.4433 -47.4433 -47.4432 -47.4432
   -47.4275 -47.4270 -47.4264 -47.4264 -47.4222 -47.4222 -47.4220 -47.4215
   -47.4197 -47.4190 -47.4172 -47.4163 -47.4159 -47.4157 -47.4141 -47.4137
   -47.4076 -47.4071 -47.4066 -47.4059 -47.3964 -47.3963 -47.3960 -47.3960
   -47.3924 -47.3923 -47.3918 -47.3918  -3.2887  -3.2860  -3.1202  -3.1166
    -3.0353  -3.0339  -2.8653  -2.8648  -2.6083  -2.6058  -2.4398  -2.4354
    -2.0159  -2.0045  -1.8512  -1.8355  -1.2985  -1.2974  -1.1409  -1.1396
    -1.0976  -1.0785  -0.8348  -0.8291  -0.7290  -0.6095  -0.5860  -0.5754
    -0.4423  -0.4362  -0.4335  -0.3664  -0.3462  -0.3389  -0.0854  -0.0258
     0.0167   0.0416   0.0481   0.3118   0.4920   0.7727   0.9270   1.1308
     1.3177   1.4888   1.4997   1.7590   1.7658   1.8764   1.9145   1.9887
     2.7277   2.7753   2.7899

     the Fermi energy is    -0.8943 ev

!    total energy              =    -661.67716060 Ry
     total all-electron energy =      -661.677518 Ry
     estimated scf accuracy    <       0.00000046 Ry
     smearing contrib. (-TS)   =       0.00049634 Ry
     internal energy E=F+TS    =    -661.67765694 Ry

     The total energy is F=E-TS. E is the sum of the following terms:
     one-electron contribution =   -3235.94875906 Ry
     hartree contribution      =    1555.37771596 Ry
     xc contribution           =    -157.72839271 Ry
     ewald contribution        =    1172.74152440 Ry
     one-center paw contrib.   =       3.88025446 Ry

     convergence has been achieved in  21 iterations

     Forces acting on atoms (cartesian axes, Ry/au):

     atom    1 type  1   force =     0.00000000    0.00014481   -0.00001626
     atom    2 type  1   force =    -0.00000090   -0.00014380    0.00001630
     atom    3 type  1   force =     0.00000055   -0.00014387    0.00014910
     atom    4 type  1   force =     0.00000000    0.00017132    0.00006216
     atom    5 type  1   force =     0.00000000    0.00007580    0.00009536
     atom    6 type  1   force =     0.00000000    0.00000325    0.00017269
     atom    7 type  1   force =     0.00000032   -0.00004131   -0.00000692
     atom    8 type  1   force =    -0.00000016   -0.00013378    0.00002875
     atom    9 type  1   force =     0.00000052    0.00001393    0.00011278
     atom   10 type  1   force =     0.00000082   -0.00007715    0.00017716
     atom   11 type  1   force =     0.00000000    0.00001076    0.00017325
     atom   12 type  1   force =     0.00000000    0.00002170    0.00002095
     atom   13 type  1   force =     0.00000000    0.00013270   -0.00002890
     atom   14 type  1   force =     0.00000000    0.00004189    0.00000671
     atom   15 type  1   force =     0.00000025   -0.00001193   -0.00017274
     atom   16 type  1   force =     0.00000009   -0.00000327   -0.00017367
     atom   17 type  1   force =     0.00000009   -0.00002261   -0.00002164
     atom   18 type  1   force =     0.00000000    0.00007636   -0.00017755
     atom   19 type  1   force =     0.00000000   -0.00001364   -0.00011417
     atom   20 type  1   force =     0.00000000    0.00014342   -0.00014964
     atom   21 type  1   force =     0.00000009   -0.00007519   -0.00009367
     atom   22 type  1   force =     0.00000040   -0.00017062   -0.00006122
     atom   23 type  1   force =     0.00000000    0.00014443   -0.00001570
     atom   24 type  1   force =     0.00000090   -0.00014380    0.00001630
     atom   25 type  1   force =    -0.00000055   -0.00014387    0.00014910
     atom   26 type  1   force =     0.00000000    0.00017107    0.00006192
     atom   27 type  1   force =     0.00000000    0.00007496    0.00009381
     atom   28 type  1   force =     0.00000000    0.00000363    0.00017298
     atom   29 type  1   force =    -0.00000032   -0.00004131   -0.00000692
     atom   30 type  1   force =     0.00000016   -0.00013378    0.00002875
     atom   31 type  1   force =    -0.00000052    0.00001393    0.00011278
     atom   32 type  1   force =    -0.00000082   -0.00007715    0.00017716
     atom   33 type  1   force =     0.00000000    0.00001242    0.00017219
     atom   34 type  1   force =     0.00000000    0.00002189    0.00002102
     atom   35 type  1   force =     0.00000000    0.00013361   -0.00002758
     atom   36 type  1   force =     0.00000000    0.00004227    0.00000687
     atom   37 type  1   force =    -0.00000025   -0.00001193   -0.00017274
     atom   38 type  1   force =    -0.00000009   -0.00000327   -0.00017367
     atom   39 type  1   force =    -0.00000009   -0.00002261   -0.00002164
     atom   40 type  1   force =     0.00000000    0.00007652   -0.00017607
     atom   41 type  1   force =     0.00000000   -0.00001349   -0.00011310
     atom   42 type  1   force =     0.00000000    0.00014356   -0.00014939
     atom   43 type  1   force =    -0.00000009   -0.00007519   -0.00009367
     atom   44 type  1   force =    -0.00000040   -0.00017062   -0.00006122

     Total force =     0.000986     Total SCF correction =     0.000889
     SCF correction compared to forces is large: reduce conv_thr to get better values

     BFGS Geometry Optimization
     Energy error            =      9.7E-07 Ry
     Gradient error          =      1.8E-04 Ry/Bohr

     bfgs converged in   1 scf cycles and   0 bfgs steps
     (criteria: energy <  1.0E-05 Ry, force <  3.9E-04 Ry/Bohr)

     End of BFGS Geometry Optimization

     Final energy             =    -661.6771605981 Ry
Begin final coordinates

ATOMIC_POSITIONS (angstrom)
Li               4.8580444100        5.5206410300       23.7661646100
Li               2.4290304800        4.3188318600        8.4584621800
Li               2.4290222100        1.0645107800       10.1922638200
Li               4.8580444100        2.1584728000        8.9410889900
Li              -0.0000000100        4.9398005400       10.3359455800
Li               4.8580444100        1.8981028000       11.9668650400
Li               2.4290230000        3.1448090100       14.2711236600
Li               2.4290194200        5.7146506100       15.9333042800
Li               2.4290193600        3.6851667300       11.3304015100
Li               2.4290237800        0.4896375000       13.0242028000
Li              -0.0000000100        4.5659146600       13.3397202400
Li               4.8580444100        1.4630835500       14.9702297700
Li               4.8580444100        4.1248680200       16.2913128400
Li               4.8580444100        0.9981412100       17.9535086700
Li               2.4290208400        5.2736023600       18.8849032500
Li               2.4290201800        2.2448563600       20.2577629000
Li               2.4290250300        2.6798684800       17.2544051200
Li              -0.0000000100        3.6533176500       19.2004325800
Li               4.8580444100        0.4577811300       20.8942290900
Li               4.8580444100        3.0784573800       22.0323139000
Li               2.4290146600        4.8997162100       21.8886695500
Li               2.4290681800        1.9844767300       23.2835316000
Li               9.7160888300        5.5207294400       23.7661429800
Li               7.2870583400        4.3188318700        8.4584621800
Li               7.2870666100        1.0645107800       10.1922638300
Li               9.7160888300        2.1584795200        8.9410805700
Li               4.8580444100        4.9397984900       10.3359594900
Li               9.7160888300        1.8980975000       11.9668526200
Li               7.2870658200        3.1448090100       14.2711236600
Li               7.2870694000        5.7146506100       15.9333042800
Li               7.2870694500        3.6851667300       11.3304015100
Li               7.2870650400        0.4896375000       13.0242028000
Li               4.8580444100        4.5659180600       13.3397243300
Li               9.7160888300        1.4630853300       14.9702138300
Li               9.7160888300        4.1248609200       16.2913269900
Li               9.7160888300        0.9981501100       17.9534963800
Li               7.2870679800        5.2736023600       18.8849032500
Li               7.2870686400        2.2448563600       20.2577629000
Li               7.2870637800        2.6798684800       17.2544051200
Li               4.8580444100        3.6533204100       19.2003972700
Li               9.7160888300        0.4577877800       20.8942094000
Li               9.7160888300        3.0784267700       22.0323865300
Li               7.2870741600        4.8997162100       21.8886695500
Li               7.2870206400        1.9844767300       23.2835316000
End final coordinates

     Message from routine punch:
     Nothing written, as per user request (disk_io='none')

     General routines

     Parallel routines

   This run was terminated on:   0:38:26  23Jan2025

   JOB DONE.