     Program PWSCF v.7.4 starts on 21Jan2025 at 10:53:45

     Reading input from espresso.pwi
Warning: card &CELL ignored
Warning: card    PRESS_CONV_THR   = 0.1 ignored
Warning: card    CELL_DOFREE      = 'ALL' ignored
Warning: card / ignored
Warning: card &FCP ignored
Warning: card / ignored
Warning: card &RISM ignored
Warning: card / ignored

     Current dimensions of program PWSCF are:
     Max number of different atomic species (ntypx) = 10
     Max number of k-points (npk) =  40000
     Max angular momentum in pseudopotentials (lmaxx) =  4

     IMPORTANT: XC functional enforced from input :
     Exchange-correlation= PBE
                           (   1   4   3   4   0   0   0)
     Any further DFT definition will be discarded
     Please, verify this is what you really want

     Reading input from environ.in:
     * using ionic solvent mode
     * setting boundary derivatives method to SSCS default
     * setting electrolyte-boundary derivatives method to SSCS default

Environ Warning (1001): card EOF ignored

     Found identity + (  0.5000  0.0000 -0.0000) symmetry
     This is a supercell, fractional translations are disabled

     K-points division:     npool     =       2
     R & G space division:  proc/nbgrp/npool/nimage =     256
     Subspace diagonalization in iterative solution of the eigenvalue problem:
     a serial algorithm will be used

     Using Slab Decomposition

     bravais-lattice index     =           12
     lattice parameter (alat)  =      12.9830  a.u.
     unit-cell volume          =   12574.0527 (a.u.)^3
     number of atoms/cell      =           20
     number of atomic types    =            1
     number of electrons       =        60.00
     number of Kohn-Sham states=           45
     kinetic-energy cutoff     =      80.0000  Ry
     charge density cutoff     =     800.0000  Ry
     scf convergence threshold =      1.0E-16
     mixing beta               =       0.2000
     number of iterations used =            8  local-TF  mixing
     Exchange-correlation= PBE
                           (   1   4   3   4   0   0   0)

                                  Environ Setup Summary

          O. Andreussi, I. Dabo and N. Marzari, J. Chem. Phys. 136, 064102 (2012)
          F. Nattino, M. Truscott, N. Marzari, and O. Andreussi, J. Chem. Phys. 150, 041722 (2019)

     in publications or presentations arising from this work.

     Parameters

     compensation onset threshold      =               0.1000E+00
     static permittivity               =                    89.90
     surface tension in input (dyn/cm) =                    37.30
     surface tension in internal units =               0.4792E-04

     Solvent Boundary

     solvent mode                      =                    ionic
     derivatives method                =                   lowmem
     electrolyte derivatives method    =                   lowmem
     numerical core for derivatives    =                      fft
     switching function adopted        =                     SCCS
     density limit for vacuum region   =               0.5000E-02
     density limit for bulk solvent    =               0.1000E-03
     soft-sphere radius mode           =                    bondi
     soft-sphere softness              =                     0.50
     alpha                             =                     1.32

     Electrostatic Setup

     electrostatic problem to solve    =                    modpb
     numerical solver adopted          =                   newton
     type of auxiliary density adopted =                     none
     numerical core for poisson        =                      fft
     adopting a nested solver scheme
     inner solver                      =                       cg
     inner core                        =                      fft
     type of pbc corrections           =                parabolic
     numerical core for corrections    =                      1da

     >>>>> Grand-Canonical SCF is activated <<<<<
     Initial Total Charge  =     0.000000 e
     Target Fermi Energy   =    -5.404000 eV
     Thr. of Fermi Energy  =     0.001000 eV
     Wave-shift of Kerker  =     0.400000 bohr^-1
     Wave-shift of Hartree =     1.500000 bohr^-1
     Mixing Rate of Fermi  =     0.050000

     celldm(1)=  12.983009  celldm(2)=   0.829156  celldm(3)=   7.267908
     celldm(4)=  -0.301511  celldm(5)=   0.000000  celldm(6)=   0.000000

     crystal axes: (cart. coord. in units of alat)
               a(1) = (   1.000000   0.000000   0.000000 )
               a(2) = (  -0.250000   0.790569   0.000000 )
               a(3) = (   0.000000   0.000000   7.267908 )

     reciprocal axes: (cart. coord. in units 2 pi/alat)
               b(1) = (  1.000000  0.316228 -0.000000 )
               b(2) = (  0.000000  1.264912  0.000000 )
               b(3) = (  0.000000 -0.000000  0.137591 )

     PseudoPot. # 1 for Li read from file:
     /work/e89/e89/ba3g18/Repos/Pseudopotentials/Pslibrary/Li.pbe-sl-kjpaw_psl.1.0.0.UPF
     MD5 check sum: 3f4d2cafebb47c6c3aa8ed472e6f074d
     Pseudo is Projector augmented-wave, Zval =  3.0
     Generated using 'atomic' code by A. Dal Corso  v.7.4
     Shape of augmentation charge: PSQ
     Using radial grid of 1017 points,  4 beta functions with:
                l(1) =   0
                l(2) =   0
                l(3) =   1
                l(4) =   1
     Q(r) pseudized with 0 coefficients

     atomic species   valence    mass     pseudopotential
     Li                3.00     6.94000     Li( 1.00)

     No symmetry found

                                    s                        frac. trans.

      isym =  1     identity

 cryst.   s( 1) = (     1          0          0      )
                  (     0          1          0      )
                  (     0          0          1      )

 cart.    s( 1) = (  1.0000000 -0.0000000  0.0000000 )
                  (  0.0000000  1.0000000  0.0000000 )
                  (  0.0000000  0.0000000  1.0000000 )

     point group C_1 (1)
     there are  1 classes
     the character table:

       E
A      1.00

     the symmetry operations in each class and the name of the first element:

     E        1
          identity

   Cartesian axes

     site n.     atom                  positions (alat units)
         1        Li     tau(   1) = (   0.2498564   0.2962346   3.0811916  )
         2        Li     tau(   2) = (  -0.0000439   0.6609009   3.2114342  )
         3        Li     tau(   3) = (  -0.0000611   0.1599808   3.4102847  )
         4        Li     tau(   4) = (   0.2499970   0.4877680   3.5346664  )
         5        Li     tau(   5) = (   0.2500072  -0.0134588   3.7332737  )
         6        Li     tau(   6) = (   0.0000598   0.3144886   3.8573939  )
         7        Li     tau(   7) = (   0.2500428   0.6039635   4.0565551  )
         8        Li     tau(   8) = (   0.2501438   0.1782842   4.1864886  )
         9        Li     tau(   9) = (  -0.0000210   0.5106198   4.4669276  )
        10        Li     tau(  10) = (   0.5000214  -0.0365043   2.8013314  )
        11        Li     tau(  11) = (   0.7498540   0.2962347   3.0811892  )
        12        Li     tau(  12) = (   0.4999588   0.6609026   3.2114311  )
        13        Li     tau(  13) = (   0.4999411   0.1599780   3.4102823  )
        14        Li     tau(  14) = (   0.7499894   0.4877687   3.5346658  )
        15        Li     tau(  15) = (   0.7500069  -0.0134573   3.7332769  )
        16        Li     tau(  16) = (   0.5000605   0.3144899   3.8573968  )
        17        Li     tau(  17) = (   0.7500417   0.6039638   4.0565543  )
        18        Li     tau(  18) = (   0.7501462   0.1782877   4.1864892  )
        19        Li     tau(  19) = (   0.4999793   0.5106200   4.4669159  )
        20        Li     tau(  20) = (   1.0000199  -0.0365092   2.8013264  )

   Crystallographic axes

     site n.     atom                  positions (cryst. coord.)
         1        Li     tau(   1) = (  0.3435341  0.3747107  0.4239448  )
         2        Li     tau(   2) = (  0.2089514  0.8359813  0.4418650  )
         3        Li     tau(   3) = (  0.0505293  0.2023616  0.4692251  )
         4        Li     tau(   4) = (  0.4042429  0.6169834  0.4863389  )
         5        Li     tau(   5) = (  0.2457511 -0.0170242  0.5136655  )
         6        Li     tau(   6) = (  0.0995099  0.3978003  0.5307434  )
         7        Li     tau(   7) = (  0.4410329  0.7639605  0.5581462  )
         8        Li     tau(   8) = (  0.3065222  0.2255138  0.5760239  )
         9        Li     tau(   9) = (  0.1614513  0.6458890  0.6146098  )
        10        Li     tau(  10) = (  0.4884777 -0.0461747  0.3854385  )
        11        Li     tau(  11) = (  0.8435316  0.3747108  0.4239444  )
        12        Li     tau(  12) = (  0.7089547  0.8359834  0.4418646  )
        13        Li     tau(  13) = (  0.5505306  0.2023580  0.4692247  )
        14        Li     tau(  14) = (  0.9042355  0.6169844  0.4863388  )
        15        Li     tau(  15) = (  0.7457513 -0.0170223  0.5136660  )
        16        Li     tau(  16) = (  0.5995110  0.3978019  0.5307438  )
        17        Li     tau(  17) = (  0.9410319  0.7639609  0.5581461  )
        18        Li     tau(  18) = (  0.8065258  0.2255182  0.5760240  )
        19        Li     tau(  19) = (  0.6614516  0.6458892  0.6146082  )
        20        Li     tau(  20) = (  0.9884746 -0.0461810  0.3854378  )

     number of k points=    62  Marzari-Vanderbilt smearing, width (Ry)=  0.0100
                       cart. coord. in units 2pi/alat
        k(    1) = (   0.0000000   0.0000000   0.0000000), wk =   0.0166667
        k(    2) = (   0.0000000   0.1054093   0.0000000), wk =   0.0333333
        k(    3) = (   0.0000000   0.2108186   0.0000000), wk =   0.0333333
        k(    4) = (   0.0000000   0.3162279   0.0000000), wk =   0.0333333
        k(    5) = (   0.0000000   0.4216372   0.0000000), wk =   0.0333333
        k(    6) = (   0.0000000   0.5270466   0.0000000), wk =   0.0333333
        k(    7) = (   0.0000000  -0.6324559   0.0000000), wk =   0.0166667
        k(    8) = (   0.1000000   0.0316228   0.0000000), wk =   0.0333333
        k(    9) = (   0.1000000   0.1370321   0.0000000), wk =   0.0333333
        k(   10) = (   0.1000000   0.2424414   0.0000000), wk =   0.0333333
        k(   11) = (   0.1000000   0.3478507   0.0000000), wk =   0.0333333
        k(   12) = (   0.1000000   0.4532600   0.0000000), wk =   0.0333333
        k(   13) = (   0.1000000   0.5586693   0.0000000), wk =   0.0333333
        k(   14) = (   0.1000000  -0.6008331   0.0000000), wk =   0.0333333
        k(   15) = (   0.1000000  -0.4954238   0.0000000), wk =   0.0333333
        k(   16) = (   0.1000000  -0.3900144   0.0000000), wk =   0.0333333
        k(   17) = (   0.1000000  -0.2846051   0.0000000), wk =   0.0333333
        k(   18) = (   0.1000000  -0.1791958   0.0000000), wk =   0.0333333
        k(   19) = (   0.1000000  -0.0737865   0.0000000), wk =   0.0333333
        k(   20) = (   0.2000000   0.0632456   0.0000000), wk =   0.0333333
        k(   21) = (   0.2000000   0.1686549   0.0000000), wk =   0.0333333
[...]
     electrostatic embedding   =      -1.98008253 Ry
     cavitation energy         =       0.01859730 Ry
     electrolyte free energy   =      -0.03868630 Ry
     correction to one-el term =     -78.43808729 Ry

     iteration # 50     ecut=    80.00 Ry     beta= 0.20
     Davidson diagonalization with overlap

     ethr =  1.00E-13,  avg # of iterations =  2.3

     negative rho (up, down):  2.664E-04 0.000E+00

     End of self-consistent calculation

          k = 0.0000 0.0000 0.0000 (152015 PWs)   bands (ev):

   -53.4449 -53.4437 -53.4431 -53.4419 -52.5798 -52.5794 -52.5784 -52.5780
   -52.0547 -52.0536 -52.0529 -52.0519 -51.9566 -51.9534 -51.9533 -51.9519
   -51.9217 -51.9179 -51.9176 -51.9147  -8.6912  -8.0338  -7.0478  -6.0818
    -6.0176  -5.9006  -5.4714  -5.4646  -5.0430  -4.9426  -4.8389  -4.7286
    -4.6373  -4.3558  -4.0892  -4.0829  -3.9052  -3.5832  -3.4358  -2.5482
    -2.3334  -2.1708  -2.1071  -1.8226  -1.7521

     occupation numbers
     1.0000   1.0000   1.0000   1.0000   1.0000   1.0000   1.0000   1.0000
     1.0000   1.0000   1.0000   1.0000   1.0000   1.0000   1.0000   1.0000
     1.0000   1.0000   1.0000   1.0000   1.0000   1.0000   1.0000   1.0000
     1.0000   1.0001   0.7639   0.7282   0.0000   0.0000   0.0000   0.0000
     0.0000   0.0000   0.0000   0.0000   0.0000   0.0000   0.0000   0.0000
     0.0000   0.0000   0.0000   0.0000   0.0000

[...]

          k = 0.4000 0.0211 0.0000 (151880 PWs)   bands (ev):

[...]

          k =-0.5000-0.1581 0.0000 (151980 PWs)   bands (ev):

[...]

          k =-0.5000-0.7906 0.0000 (151788 PWs)   bands (ev):

   -53.4443 -53.4443 -53.4425 -53.4425 -52.5791 -52.5791 -52.5787 -52.5787
   -52.0538 -52.0538 -52.0527 -52.0527 -51.9547 -51.9547 -51.9526 -51.9525
   -51.9212 -51.9212 -51.9150 -51.9150  -7.5544  -7.5544  -6.8977  -6.8977
    -6.5921  -6.5921  -6.0636  -6.0636  -5.7761  -5.7761  -5.1824  -5.1824
    -4.4329  -4.4329  -3.4323  -3.4322  -3.3130  -3.3130  -3.0172  -3.0172
    -2.5852  -2.5852  -1.6714  -1.6714  -1.1129

     occupation numbers
     1.0000   1.0000   1.0000   1.0000   1.0000   1.0000   1.0000   1.0000
     1.0000   1.0000   1.0000   1.0000   1.0000   1.0000   1.0000   1.0000
     1.0000   1.0000   1.0000   1.0000   1.0000   1.0000   1.0000   1.0000
     1.0000   1.0000   1.0000   1.0000   1.0045   1.0045   0.0022   0.0022
     0.0000   0.0000   0.0000   0.0000   0.0000   0.0000   0.0000   0.0000
     0.0000   0.0000   0.0000   0.0000   0.0000

     the Fermi energy is    -5.4040 ev

!    total energy              =    -301.04443103 Ry
     total all-electron energy =      -301.044594 Ry
     estimated scf accuracy    <          9.0E-17 Ry

!    total charge of GC-SCF    =       2.82280060 e
     smearing contrib. (-TS)   =       0.00049011 Ry
     internal energy E=F+TS    =    -301.04492114 Ry

     The total energy is F=E-TS. E is the sum of the following terms:
     one-electron contribution =   -3146.81605338 Ry
     hartree contribution      =    1534.49661331 Ry
     xc contribution           =     -70.43947818 Ry
     ewald contribution        =    1461.50170215 Ry
     one-center paw contrib.   =       1.77173270 Ry
      -> PAW hartree energy AE =       7.25308351 Ry
      -> PAW hartree energy PS =      -7.02948902 Ry
      -> PAW xc energy AE      =      -3.45180642 Ry
      -> PAW xc energy PS      =       3.31677774 Ry
      -> total E_H with PAW    =    1534.72020781 Ry
      -> total E_XC with PAW   =     -70.57450686 Ry
     pot.stat. contrib. (-muN) =      -1.12117878 Ry
     electrostatic embedding   =      -1.98008254 Ry
     cavitation energy         =       0.01859730 Ry
     electrolyte free energy   =      -0.03868630 Ry
     correction to one-el term =     -78.43808743 Ry

     WARNING: you are using the parabolic pbc correction;
              the potential shift above must be added to
              band and Fermi energies.

     convergence has been achieved in  50 iterations
     The dielectric solvent contribution to forces
     atom    1 type  1   force =    -0.00000954    0.01554949   -0.10348342
     atom    2 type  1   force =    -0.00000003   -0.00945530   -0.08083317
     atom    3 type  1   force =    -0.00000011    0.00191480   -0.04486425
     atom    4 type  1   force =     0.00000001   -0.00040056   -0.02097935
     atom    5 type  1   force =    -0.00000009    0.00040295    0.02150085
     atom    6 type  1   force =     0.00000028   -0.00191804    0.04532184
     atom    7 type  1   force =     0.00000010    0.00950176    0.08134778
     atom    8 type  1   force =     0.00000922   -0.01563579    0.10391205
     atom    9 type  1   force =     0.00000319    0.00708813   -0.05262636
     atom   10 type  1   force =    -0.00000352   -0.00706372    0.05251947
     atom   11 type  1   force =    -0.00000822    0.01554952   -0.10348285
     atom   12 type  1   force =    -0.00000035   -0.00945527   -0.08083292
     atom   13 type  1   force =    -0.00000033    0.00191467   -0.04486450
     atom   14 type  1   force =     0.00000024   -0.00040053   -0.02097941
     atom   15 type  1   force =    -0.00000016    0.00040298    0.02150154
     atom   16 type  1   force =     0.00000016   -0.00191820    0.04532245
     atom   17 type  1   force =     0.00000031    0.00950163    0.08134748
     atom   18 type  1   force =     0.00000875   -0.01563632    0.10391169
     atom   19 type  1   force =     0.00000270    0.00708826   -0.05261484
     atom   20 type  1   force =    -0.00000231   -0.00706385    0.05252446

     Forces acting on atoms (cartesian axes, Ry/au):

     atom    1 type  1   force =    -0.00001532   -0.00026577    0.00100578
     atom    2 type  1   force =    -0.00000238   -0.00006824    0.00155394
     atom    3 type  1   force =    -0.00001334   -0.00029644    0.00009233
     atom    4 type  1   force =     0.00000381   -0.00078492   -0.00093975
     atom    5 type  1   force =    -0.00000434    0.00081699    0.00090331
     atom    6 type  1   force =     0.00001360    0.00026691   -0.00006554
     atom    7 type  1   force =     0.00000213    0.00008347   -0.00155470
     atom    8 type  1   force =     0.00001522    0.00023555   -0.00097864
     atom    9 type  1   force =     0.00000906   -0.00016548    0.00339637
     atom   10 type  1   force =    -0.00000921    0.00017871   -0.00341330
     atom   11 type  1   force =    -0.00001460   -0.00026581    0.00100599
     atom   12 type  1   force =    -0.00000261   -0.00006833    0.00155405
     atom   13 type  1   force =    -0.00001332   -0.00029678    0.00009275
     atom   14 type  1   force =     0.00000502   -0.00078485   -0.00093936
     atom   15 type  1   force =    -0.00000471    0.00081715    0.00090294
     atom   16 type  1   force =     0.00001297    0.00026592   -0.00006567
     atom   17 type  1   force =     0.00000291    0.00008359   -0.00155464
     atom   18 type  1   force =     0.00001499    0.00023491   -0.00097860
     atom   19 type  1   force =     0.00000918   -0.00016562    0.00339619
     atom   20 type  1   force =    -0.00000907    0.00017902   -0.00341343
     The non-local contrib.  to forces
     atom    1 type  1   force =    -0.00004340    0.01964520   -0.05844253
     atom    2 type  1   force =    -0.00000491   -0.00627068   -0.00568110
     atom    3 type  1   force =    -0.00001734    0.00017626   -0.00469972
     atom    4 type  1   force =    -0.00000505   -0.00156713   -0.00307612
     atom    5 type  1   force =     0.00000433    0.00159434    0.00302801
     atom    6 type  1   force =     0.00001828   -0.00023001    0.00470298
     atom    7 type  1   force =     0.00000392    0.00636004    0.00581882
     atom    8 type  1   force =     0.00004194   -0.01977111    0.05838560
     atom    9 type  1   force =    -0.00000189    0.00578613    0.05726548
     atom   10 type  1   force =     0.00000135   -0.00577689   -0.05737785
     atom   11 type  1   force =    -0.00004075    0.01964543   -0.05844272
     atom   12 type  1   force =    -0.00000557   -0.00627046   -0.00568002
     atom   13 type  1   force =    -0.00001785    0.00017521   -0.00469952
     atom   14 type  1   force =    -0.00000306   -0.00156696   -0.00307618
     atom   15 type  1   force =     0.00000374    0.00159527    0.00302818
     atom   16 type  1   force =     0.00001714   -0.00023137    0.00470338
     atom   17 type  1   force =     0.00000638    0.00635972    0.00581792
     atom   18 type  1   force =     0.00004221   -0.01977136    0.05838597
     atom   19 type  1   force =    -0.00000281    0.00578690    0.05727028
     atom   20 type  1   force =     0.00000333   -0.00577663   -0.05737543
     The ionic contribution  to forces
     atom    1 type  1   force =     0.00010102    0.14650525   -8.76242014
     atom    2 type  1   force =     0.00000097   -0.12276597   -6.82611949
     atom    3 type  1   force =     0.00001849    0.01061031   -3.62401916
     atom    4 type  1   force =    -0.00001301    0.00545732   -1.64412571
     atom    5 type  1   force =    -0.00000351   -0.00478032    1.64556039
     atom    6 type  1   force =     0.00000114   -0.01147494    3.62200204
     atom    7 type  1   force =    -0.00001991    0.12384972    6.82912397
     atom    8 type  1   force =    -0.00012252   -0.14778875    8.76013892
     atom    9 type  1   force =     0.00006187    0.05411178   11.13653151
     atom   10 type  1   force =    -0.00007067   -0.05371585  -11.13664247
     atom   11 type  1   force =     0.00014141    0.14651006   -8.76244697
     atom   12 type  1   force =    -0.00000229   -0.12276422   -6.82616325
     atom   13 type  1   force =     0.00000120    0.01059489   -3.62404358
     atom   14 type  1   force =     0.00002993    0.00546077   -1.64413188
     atom   15 type  1   force =    -0.00001406   -0.00477255    1.64560945
     atom   16 type  1   force =    -0.00002174   -0.01150144    3.62204715
     atom   17 type  1   force =     0.00002291    0.12385338    6.82911192
     atom   18 type  1   force =    -0.00012009   -0.14779457    8.76015154
     atom   19 type  1   force =     0.00005343    0.05411218   11.13649443
     atom   20 type  1   force =    -0.00004455   -0.05370703  -11.13665867
     The local contribution  to forces
     atom    1 type  1   force =    -0.00006339   -0.18196569    8.92535097
     atom    2 type  1   force =     0.00000162    0.13842373    6.91418680
     atom    3 type  1   force =    -0.00001436   -0.01299780    3.67367456
     atom    4 type  1   force =     0.00002188   -0.00427454    1.66724054
     atom    5 type  1   force =    -0.00000504    0.00360003   -1.66918685
     atom    6 type  1   force =    -0.00000608    0.01388990   -3.67209329
     atom    7 type  1   force =     0.00001805   -0.13962805   -6.91784617
     atom    8 type  1   force =     0.00008660    0.18343122   -8.92341611
     atom    9 type  1   force =    -0.00005409   -0.06715150  -11.13777513
     atom   10 type  1   force =     0.00006364    0.06673517   11.13808665
     atom   11 type  1   force =    -0.00010702   -0.18197080    8.92537763
     atom   12 type  1   force =     0.00000562    0.13842162    6.91422935
     atom   13 type  1   force =     0.00000369   -0.01298153    3.67369945
     atom   14 type  1   force =    -0.00002207   -0.00427811    1.66724722
     atom   15 type  1   force =     0.00000579    0.00359146   -1.66923713
     atom   16 type  1   force =     0.00001744    0.01391694   -3.67213955
     atom   17 type  1   force =    -0.00002667   -0.13963112   -6.91783286
     atom   18 type  1   force =     0.00008413    0.18343717   -8.92342870
     atom   19 type  1   force =    -0.00004412   -0.06715293  -11.13775456
     atom   20 type  1   force =     0.00003449    0.06672655   11.13809529
     The core correction contribution to forces
     atom    1 type  1   force =     0.00000000    0.00000000    0.00000000
     atom    2 type  1   force =     0.00000000    0.00000000    0.00000000
     atom    3 type  1   force =     0.00000000    0.00000000    0.00000000
     atom    4 type  1   force =     0.00000000    0.00000000    0.00000000
     atom    5 type  1   force =     0.00000000    0.00000000    0.00000000
     atom    6 type  1   force =     0.00000000    0.00000000    0.00000000
     atom    7 type  1   force =     0.00000000    0.00000000    0.00000000
     atom    8 type  1   force =     0.00000000    0.00000000    0.00000000
     atom    9 type  1   force =     0.00000000    0.00000000    0.00000000
     atom   10 type  1   force =     0.00000000    0.00000000    0.00000000
     atom   11 type  1   force =     0.00000000    0.00000000    0.00000000
     atom   12 type  1   force =     0.00000000    0.00000000    0.00000000
     atom   13 type  1   force =     0.00000000    0.00000000    0.00000000
     atom   14 type  1   force =     0.00000000    0.00000000    0.00000000
     atom   15 type  1   force =     0.00000000    0.00000000    0.00000000
     atom   16 type  1   force =     0.00000000    0.00000000    0.00000000
     atom   17 type  1   force =     0.00000000    0.00000000    0.00000000
     atom   18 type  1   force =     0.00000000    0.00000000    0.00000000
     atom   19 type  1   force =     0.00000000    0.00000000    0.00000000
     atom   20 type  1   force =     0.00000000    0.00000000    0.00000000
     The Hubbard contrib.    to forces
     atom    1 type  1   force =     0.00000000    0.00000000    0.00000000
     atom    2 type  1   force =     0.00000000    0.00000000    0.00000000
     atom    3 type  1   force =     0.00000000    0.00000000    0.00000000
     atom    4 type  1   force =     0.00000000    0.00000000    0.00000000
     atom    5 type  1   force =     0.00000000    0.00000000    0.00000000
     atom    6 type  1   force =     0.00000000    0.00000000    0.00000000
     atom    7 type  1   force =     0.00000000    0.00000000    0.00000000
     atom    8 type  1   force =     0.00000000    0.00000000    0.00000000
     atom    9 type  1   force =     0.00000000    0.00000000    0.00000000
     atom   10 type  1   force =     0.00000000    0.00000000    0.00000000
     atom   11 type  1   force =     0.00000000    0.00000000    0.00000000
     atom   12 type  1   force =     0.00000000    0.00000000    0.00000000
     atom   13 type  1   force =     0.00000000    0.00000000    0.00000000
     atom   14 type  1   force =     0.00000000    0.00000000    0.00000000
     atom   15 type  1   force =     0.00000000    0.00000000    0.00000000
     atom   16 type  1   force =     0.00000000    0.00000000    0.00000000
     atom   17 type  1   force =     0.00000000    0.00000000    0.00000000
     atom   18 type  1   force =     0.00000000    0.00000000    0.00000000
     atom   19 type  1   force =     0.00000000    0.00000000    0.00000000
     atom   20 type  1   force =     0.00000000    0.00000000    0.00000000
     The SCF correction term to forces
     atom    1 type  1   force =    -0.00000000   -0.00000000    0.00000000
     atom    2 type  1   force =     0.00000000    0.00000000   -0.00000001
     atom    3 type  1   force =    -0.00000000    0.00000000   -0.00000001
     atom    4 type  1   force =     0.00000000   -0.00000000   -0.00000000
     atom    5 type  1   force =    -0.00000000    0.00000000    0.00000000
     atom    6 type  1   force =    -0.00000000    0.00000000   -0.00000000
     atom    7 type  1   force =     0.00000000   -0.00000000   -0.00000000
     atom    8 type  1   force =    -0.00000000   -0.00000000   -0.00000001
     atom    9 type  1   force =     0.00000000    0.00000001   -0.00000002
     atom   10 type  1   force =     0.00000000   -0.00000000    0.00000001
     atom   11 type  1   force =    -0.00000000    0.00000000    0.00000000
     atom   12 type  1   force =    -0.00000000    0.00000000   -0.00000000
     atom   13 type  1   force =     0.00000000   -0.00000000   -0.00000000
     atom   14 type  1   force =     0.00000000   -0.00000000   -0.00000000
     atom   15 type  1   force =    -0.00000000    0.00000000   -0.00000000
     atom   16 type  1   force =     0.00000000   -0.00000000    0.00000000
     atom   17 type  1   force =    -0.00000000   -0.00000000    0.00000000
     atom   18 type  1   force =     0.00000000   -0.00000000   -0.00000000
     atom   19 type  1   force =     0.00000000   -0.00000000   -0.00000002
     atom   20 type  1   force =    -0.00000000   -0.00000000    0.00000001

     Total force =     0.008166     Total SCF correction =     0.000000

     Writing all to output data dir ./Li/Lithium.save/ :
     XML data file

     General routines

     Parallel routines

     PAW routines

     Environ routines

   This run was terminated on:  11:11:12  21Jan2025

   JOB DONE.