     Program PWSCF v.7.4 starts on 23Jan2025 at  0:35:54

     Reading input from espresso.pwi
Warning: card &CELL ignored
Warning: card    PRESS_CONV_THR   = 0.1 ignored
Warning: card    CELL_DOFREE      = 'ALL' ignored
Warning: card / ignored
Warning: card &FCP ignored
Warning: card / ignored
Warning: card &RISM ignored
Warning: card / ignored

     Current dimensions of program PWSCF are:
     Max number of different atomic species (ntypx) = 10
     Max number of k-points (npk) =  40000
     Max angular momentum in pseudopotentials (lmaxx) =  4

     IMPORTANT: XC functional enforced from input :
     Exchange-correlation= PBE
                           (   1   4   3   4   0   0   0)
     Any further DFT definition will be discarded
     Please, verify this is what you really want

     Found identity + ( -0.5000  0.0000  0.0000) symmetry
     This is a supercell, fractional translations are disabled
     Message from routine setup:
     using ibrav=0 with symmetry is DISCOURAGED, use correct ibrav instead

     K-points division:     npool     =       3
     R & G space division:  proc/nbgrp/npool/nimage =     128
     Subspace diagonalization in iterative solution of the eigenvalue problem:
     a serial algorithm will be used

     Using Slab Decomposition

     bravais-lattice index     =            0
     lattice parameter (alat)  =      11.2436  a.u.
     unit-cell volume          =   13130.3767 (a.u.)^3
     number of atoms/cell      =           24
     number of atomic types    =            1
     number of electrons       =        72.00
     number of Kohn-Sham states=           54
     kinetic-energy cutoff     =      80.0000  Ry
     charge density cutoff     =     800.0000  Ry
     scf convergence threshold =      1.0E-06
     mixing beta               =       0.2000
     number of iterations used =            8  local-TF  mixing
     energy convergence thresh.=      1.0E-05
     force convergence thresh. =      3.9E-04
     Exchange-correlation= PBE
                           (   1   4   3   4   0   0   0)
     nstep                     =           50

     celldm(1)=  11.243615  celldm(2)=   0.000000  celldm(3)=   0.000000
     celldm(4)=   0.000000  celldm(5)=   0.000000  celldm(6)=   0.000000

     crystal axes: (cart. coord. in units of alat)
               a(1) = (   1.000000   0.000000   0.000000 )
               a(2) = (   0.000000   1.632993   0.000000 )
               a(3) = (   0.000000   0.000000   5.656854 )

     reciprocal axes: (cart. coord. in units 2 pi/alat)
               b(1) = (  1.000000  0.000000  0.000000 )
               b(2) = (  0.000000  0.612372  0.000000 )
               b(3) = (  0.000000  0.000000  0.176777 )

     PseudoPot. # 1 for Li read from file:
     /iridisfs/home/ba3g18/Repos/Pseudopotentials/pslibrary.1.0.0/pbe/PSEUDOPOTENTIALS/Li.pbe-sl-kjpaw_psl.1.0.0.UPF
     MD5 check sum: 3f4d2cafebb47c6c3aa8ed472e6f074d
     Pseudo is Projector augmented-wave, Zval =  3.0
     Generated using 'atomic' code by A. Dal Corso  v.7.4
     Shape of augmentation charge: PSQ
     Using radial grid of 1017 points,  4 beta functions with:
                l(1) =   0
                l(2) =   0
                l(3) =   1
                l(4) =   1
     Q(r) pseudized with 0 coefficients

     atomic species   valence    mass     pseudopotential
     Li                3.00     6.94000     Li( 1.00)

      2 Sym. Ops. (no inversion) found

   Cartesian axes

     site n.     atom                  positions (alat units)
         1        Li     tau(   1) = (   0.5006697   0.8164966   3.3925065  )
         2        Li     tau(   2) = (   0.1659970   0.4082497   2.2643503  )
         3        Li     tau(   3) = (   0.3837255   0.8164966   2.4770591  )
         4        Li     tau(   4) = (   0.4858088   0.4082474   2.7141964  )
         5        Li     tau(   5) = (   0.1808513   0.8164966   2.9426588  )
         6        Li     tau(   6) = (   0.2829402   0.4082494   3.1797973  )
         7        Li     tau(   7) = (   0.5006709   1.6329931   3.3925028  )
         8        Li     tau(   8) = (   0.1659970   1.2247435   2.2643503  )
         9        Li     tau(   9) = (   0.3837291   1.6329931   2.4770547  )
        10        Li     tau(  10) = (   0.4858088   1.2247458   2.7141964  )
        11        Li     tau(  11) = (   0.1808619   1.6329931   2.9426567  )
        12        Li     tau(  12) = (   0.2829402   1.2247439   3.1797973  )
        13        Li     tau(  13) = (   1.0006697   0.8164966   3.3925065  )
        14        Li     tau(  14) = (   0.6659970   0.4082495   2.2643501  )
        15        Li     tau(  15) = (   0.8837254   0.8164966   2.4770590  )
        16        Li     tau(  16) = (   0.9858088   0.4082476   2.7141965  )
        17        Li     tau(  17) = (   0.6808512   0.8164966   2.9426587  )
        18        Li     tau(  18) = (   0.7829402   0.4082495   3.1797973  )
        19        Li     tau(  19) = (   1.0006709   1.6329931   3.3925023  )
        20        Li     tau(  20) = (   0.6659970   1.2247437   2.2643501  )
        21        Li     tau(  21) = (   0.8837291   1.6329931   2.4770550  )
        22        Li     tau(  22) = (   0.9858088   1.2247457   2.7141965  )
        23        Li     tau(  23) = (   0.6808619   1.6329931   2.9426570  )
        24        Li     tau(  24) = (   0.7829401   1.2247438   3.1797973  )

     number of k points=    24  Marzari-Vanderbilt smearing, width (Ry)=  0.0100
                       cart. coord. in units 2pi/alat
        k(    1) = (   0.0000000   0.0000000   0.0000000), wk =   0.0259740
        k(    2) = (   0.0000000   0.0874818   0.0000000), wk =   0.0519481
        k(    3) = (   0.0000000   0.1749636   0.0000000), wk =   0.0519481
        k(    4) = (   0.0000000   0.2624454   0.0000000), wk =   0.0519481
        k(    5) = (   0.0909091   0.0000000   0.0000000), wk =   0.0519481
        k(    6) = (   0.0909091   0.0874818   0.0000000), wk =   0.1038961
        k(    7) = (   0.0909091   0.1749636   0.0000000), wk =   0.1038961
        k(    8) = (   0.0909091   0.2624454   0.0000000), wk =   0.1038961
        k(    9) = (   0.1818182   0.0000000   0.0000000), wk =   0.0519481
        k(   10) = (   0.1818182   0.0874818   0.0000000), wk =   0.1038961
        k(   11) = (   0.1818182   0.1749636   0.0000000), wk =   0.1038961
        k(   12) = (   0.1818182   0.2624454   0.0000000), wk =   0.1038961
        k(   13) = (   0.2727273   0.0000000   0.0000000), wk =   0.0519481
        k(   14) = (   0.2727273   0.0874818   0.0000000), wk =   0.1038961
        k(   15) = (   0.2727273   0.1749636   0.0000000), wk =   0.1038961
        k(   16) = (   0.2727273   0.2624454   0.0000000), wk =   0.1038961
        k(   17) = (   0.3636364   0.0000000   0.0000000), wk =   0.0519481
        k(   18) = (   0.3636364   0.0874818   0.0000000), wk =   0.1038961
        k(   19) = (   0.3636364   0.1749636   0.0000000), wk =   0.1038961
        k(   20) = (   0.3636364   0.2624454   0.0000000), wk =   0.1038961
        k(   21) = (   0.4545455   0.0000000   0.0000000), wk =   0.0519481
        k(   22) = (   0.4545455   0.0874818   0.0000000), wk =   0.1038961
        k(   23) = (   0.4545455   0.1749636   0.0000000), wk =   0.1038961
        k(   24) = (   0.4545455   0.2624454   0.0000000), wk =   0.1038961

     Initial potential from superposition of free atoms

     starting charge      71.8894, renormalised to      72.0000

     negative rho (up, down):  2.316E-03 0.000E+00
     Starting wfcs are  120 randomized atomic wfcs
     Checking if some PAW data can be deallocated...

     Self-consistent Calculation

     iteration #  1     ecut=    80.00 Ry     beta= 0.20
     Davidson diagonalization with overlap
     ethr =  1.00E-02,  avg # of iterations =  3.3

     negative rho (up, down):  1.837E-04 0.000E+00

     total energy              =    -360.97770716 Ry
     estimated scf accuracy    <       2.59401342 Ry

[...]

     iteration # 12     ecut=    80.00 Ry     beta= 0.20
     Davidson diagonalization with overlap
     c_bands:  1 eigenvalues not converged
     ethr =  3.05E-05,  avg # of iterations = 12.5

[...]

     total energy              =    -360.77368511 Ry
     estimated scf accuracy    <       0.00000456 Ry

     iteration # 21     ecut=    80.00 Ry     beta= 0.20
     Davidson diagonalization with overlap
     ethr =  6.33E-09,  avg # of iterations =  4.1

     negative rho (up, down):  2.395E-04 0.000E+00

     End of self-consistent calculation

          k = 0.0000 0.0000 0.0000 (158461 PWs)   bands (ev):

   -49.1578 -49.1577 -49.1577 -49.1577 -49.1497 -49.1497 -49.1497 -49.1497
   -48.5523 -48.5520 -48.5519 -48.5519 -48.5440 -48.5439 -48.5438 -48.5438
   -48.3878 -48.3836 -48.3836 -48.3789 -48.3777 -48.3755 -48.3754 -48.3729
    -5.2762  -4.4796  -4.1079  -4.1079  -3.2980  -3.2980  -3.2058  -2.2130
    -2.2021  -2.0115  -2.0115  -1.9765  -1.5783  -1.4658  -1.4658  -1.4537
    -1.4128  -1.0698  -1.0698  -0.7404  -0.7404  -0.6688  -0.5909  -0.5909
    -0.4637  -0.1316   0.5678   0.8591   1.1479   1.2012

[...]

          k = 0.4545 0.2624 0.0000 (158787 PWs)   bands (ev):

   -49.1543 -49.1543 -49.1543 -49.1543 -49.1532 -49.1531 -49.1531 -49.1531
   -48.5487 -48.5486 -48.5484 -48.5484 -48.5475 -48.5474 -48.5473 -48.5472
   -48.3829 -48.3824 -48.3815 -48.3810 -48.3777 -48.3771 -48.3767 -48.3761
    -4.4082  -4.2383  -4.1227  -3.9526  -3.6120  -3.4464  -3.3301  -3.1653
    -2.3053  -2.1948  -2.1499  -2.0208  -1.9057  -1.8654  -1.7146  -1.4146
    -1.3461  -1.0529  -0.9866  -0.8841  -0.8311  -0.6663  -0.5870  -0.4858
     0.0608   0.2549   0.3839   0.4450   0.5475   0.6242

     the Fermi energy is    -1.9212 ev

!    total energy              =    -360.77368546 Ry
     total all-electron energy =      -360.773881 Ry
     estimated scf accuracy    <       0.00000083 Ry
     smearing contrib. (-TS)   =      -0.00120131 Ry
     internal energy E=F+TS    =    -360.77248415 Ry

     The total energy is F=E-TS. E is the sum of the following terms:
     one-electron contribution =   -2180.24213546 Ry
     hartree contribution      =    1053.08733643 Ry
     xc contribution           =     -85.98495784 Ry
     ewald contribution        =     850.25321392 Ry
     one-center paw contrib.   =       2.11405879 Ry

     convergence has been achieved in  21 iterations

     Forces acting on atoms (cartesian axes, Ry/au):

     atom    1 type  1   force =     0.00003481    0.00000000   -0.00025218
     atom    2 type  1   force =    -0.00003154    0.00000293    0.00024658
     atom    3 type  1   force =    -0.00009459    0.00000000    0.00017538
     atom    4 type  1   force =     0.00004513    0.00000626    0.00033752
     atom    5 type  1   force =    -0.00004022    0.00000000   -0.00033158
     atom    6 type  1   force =     0.00008979    0.00000375   -0.00018210
     atom    7 type  1   force =     0.00002986    0.00000000   -0.00024961
     atom    8 type  1   force =    -0.00003154   -0.00000293    0.00024658
     atom    9 type  1   force =    -0.00009004    0.00000000    0.00019093
     atom   10 type  1   force =     0.00004513   -0.00000626    0.00033752
     atom   11 type  1   force =    -0.00003798    0.00000000   -0.00033545
     atom   12 type  1   force =     0.00008979   -0.00000375   -0.00018210
     atom   13 type  1   force =     0.00003100    0.00000000   -0.00025370
     atom   14 type  1   force =    -0.00003102   -0.00000008    0.00024614
     atom   15 type  1   force =    -0.00009322    0.00000000    0.00017822
     atom   16 type  1   force =     0.00004283    0.00000071    0.00034075
     atom   17 type  1   force =    -0.00003970    0.00000000   -0.00033630
     atom   18 type  1   force =     0.00008749    0.00000341   -0.00018619
     atom   19 type  1   force =     0.00003080    0.00000000   -0.00024652
     atom   20 type  1   force =    -0.00003102    0.00000008    0.00024614
     atom   21 type  1   force =    -0.00008992    0.00000000    0.00018876
     atom   22 type  1   force =     0.00004283   -0.00000071    0.00034075
     atom   23 type  1   force =    -0.00004613    0.00000000   -0.00033335
     atom   24 type  1   force =     0.00008749   -0.00000341   -0.00018619

     Total force =     0.001326     Total SCF correction =     0.000674
     SCF correction compared to forces is large: reduce conv_thr to get better values

     BFGS Geometry Optimization
     Energy error            =      1.8E-06 Ry
     Gradient error          =      3.4E-04 Ry/Bohr

     bfgs converged in   1 scf cycles and   0 bfgs steps
     (criteria: energy <  1.0E-05 Ry, force <  3.9E-04 Ry/Bohr)

     End of BFGS Geometry Optimization

     Final energy             =    -360.7736854555 Ry
Begin final coordinates

ATOMIC_POSITIONS (angstrom)
Li               2.9789169200        4.8580445300       20.1849549100
Li               0.9876596800        2.4290307800       13.4725783600
Li               2.2831148300        4.8580445600       14.7381667900
Li               2.8904969000        2.4290170400       16.1491013700
Li               1.0760405200        4.8580445800       17.5084220300
Li               1.6834560400        2.4290285500       18.9193637300
Li               2.9789243100        9.7160883600       20.1849329200
Li               0.9876596400        7.2870583800       13.4725784200
Li               2.2831361000        9.7160883800       14.7381406000
Li               2.8904967200        7.2870721000       16.1491014100
Li               1.0761041200        9.7160883300       17.5084093400
Li               1.6834559700        7.2870605600       18.9193638100
Li               5.9538495500        4.8580445300       20.1849552700
Li               3.9625921400        2.4290295500       13.4725768800
Li               5.2580465200        4.8580445600       14.7381661300
Li               5.8654289900        2.4290178400       16.1491024000
Li               4.0509725800        4.8580445800       17.5084216900
Li               4.6583880400        2.4290292500       18.9193642000
Li               5.9538564900        9.7160883600       20.1849298100
Li               3.9625920900        7.2870596100       13.4725769500
Li               5.2580686000        9.7160883800       14.7381424200
Li               5.8654288100        7.2870713000       16.1491024400
Li               4.0510361400        9.7160883300       17.5084115800
Li               4.6583879700        7.2870598600       18.9193642800
End final coordinates

     Message from routine punch:
     Nothing written, as per user request (disk_io='none')

     General routines

     Parallel routines

   This run was terminated on:   0:37: 2  23Jan2025

   JOB DONE.