     Program PWSCF v.7.4 starts on 27Dec2024 at 19:57:48

     Reading input from espresso.pwi
Warning: card &CELL ignored
Warning: card    PRESS_CONV_THR   = 0.1 ignored
Warning: card    CELL_DOFREE      = 'ALL' ignored
Warning: card / ignored
Warning: card &FCP ignored
Warning: card / ignored
Warning: card &RISM ignored
Warning: card / ignored

     Current dimensions of program PWSCF are:
     Max number of different atomic species (ntypx) = 10
     Max number of k-points (npk) =  40000
     Max angular momentum in pseudopotentials (lmaxx) =  4

     IMPORTANT: XC functional enforced from input :
     Exchange-correlation= PBE
                           (   1   4   3   4   0   0   0)
     Any further DFT definition will be discarded
     Please, verify this is what you really want

     Reading input from environ.in:
     * using ionic solvent mode
     * setting boundary derivatives method to SSCS default
     * setting electrolyte-boundary derivatives method to SSCS default

Environ Warning (1001): card EOF ignored

     Found identity + ( -0.5000  0.0000 -0.0000) symmetry
     This is a supercell, fractional translations are disabled

     R & G space division:  proc/nbgrp/npool/nimage =     192
     Subspace diagonalization in iterative solution of the eigenvalue problem:
     a serial algorithm will be used

     Using Slab Decomposition

     bravais-lattice index     =           12
     lattice parameter (alat)  =      18.3607  a.u.
     unit-cell volume          =   23801.8568 (a.u.)^3
     number of atoms/cell      =           36
     number of atomic types    =            1
     number of electrons       =       108.00
     number of Kohn-Sham states=           81
     kinetic-energy cutoff     =      80.0000  Ry
     charge density cutoff     =     800.0000  Ry
     scf convergence threshold =      1.0E-14
     mixing beta               =       0.2000
     number of iterations used =            8  local-TF  mixing
     Exchange-correlation= PBE
                           (   1   4   3   4   0   0   0)

                                  Environ Setup Summary

          O. Andreussi, I. Dabo and N. Marzari, J. Chem. Phys. 136, 064102 (2012)
          F. Nattino, M. Truscott, N. Marzari, and O. Andreussi, J. Chem. Phys. 150, 041722 (2019)

     in publications or presentations arising from this work.

     Parameters

     compensation onset threshold      =               0.1000E+00
     static permittivity               =                    89.90
     surface tension in input (dyn/cm) =                    37.30
     surface tension in internal units =               0.4792E-04

     Solvent Boundary

     solvent mode                      =                    ionic
     derivatives method                =                   lowmem
     electrolyte derivatives method    =                   lowmem
     numerical core for derivatives    =                      fft
     switching function adopted        =                     SCCS
     density limit for vacuum region   =               0.5000E-02
     density limit for bulk solvent    =               0.1000E-03
     soft-sphere radius mode           =                    bondi
     soft-sphere softness              =                     0.50
     alpha                             =                     1.32

     Electrostatic Setup

     electrostatic problem to solve    =                    modpb
     numerical solver adopted          =                   newton
     type of auxiliary density adopted =                     none
     numerical core for poisson        =                      fft
     adopting a nested solver scheme
     inner solver                      =                       cg
     inner core                        =                      fft
     type of pbc corrections           =                parabolic
     numerical core for corrections    =                      1da

     celldm(1)=  18.360747  celldm(2)=   0.790569  celldm(3)=   5.127180
     celldm(4)=   0.316228  celldm(5)=   0.000000  celldm(6)=   0.000000

     crystal axes: (cart. coord. in units of alat)
               a(1) = (   1.000000   0.000000   0.000000 )
               a(2) = (   0.250000   0.750000   0.000000 )
               a(3) = (   0.000000   0.000000   5.127180 )

     reciprocal axes: (cart. coord. in units 2 pi/alat)
               b(1) = (  1.000000 -0.333333  0.000000 )
               b(2) = (  0.000000  1.333333  0.000000 )
               b(3) = (  0.000000  0.000000  0.195039 )

     PseudoPot. # 1 for Li read from file:
     /home/ba3g18/Repos/Pseudopotentials/pslibrary.1.0.0/pbe/PSEUDOPOTENTIALS/Li.pbe-sl-kjpaw_psl.1.0.0.UPF
     MD5 check sum: 3f4d2cafebb47c6c3aa8ed472e6f074d
     Pseudo is Projector augmented-wave, Zval =  3.0
     Generated using 'atomic' code by A. Dal Corso  v.7.4
     Shape of augmentation charge: PSQ
     Using radial grid of 1017 points,  4 beta functions with:
                l(1) =   0
                l(2) =   0
                l(3) =   1
                l(4) =   1
     Q(r) pseudized with 0 coefficients

     atomic species   valence    mass     pseudopotential
     Li                3.00     6.94000     Li( 1.00)

     No symmetry found

                                    s                        frac. trans.

      isym =  1     identity

 cryst.   s( 1) = (     1          0          0      )
                  (     0          1          0      )
                  (     0          0          1      )

 cart.    s( 1) = (  1.0000000  0.0000000  0.0000000 )
                  (  0.0000000  1.0000000  0.0000000 )
                  (  0.0000000  0.0000000  1.0000000 )

     point group C_1 (1)
     there are  1 classes
     the character table:

       E
A      1.00

     the symmetry operations in each class and the name of the first element:

     E        1
          identity

   Cartesian axes

     site n.     atom                  positions (alat units)
         1        Li     tau(   1) = (   0.0003700  -0.0485620   3.0687382  )
         2        Li     tau(   2) = (   0.2496028   0.4115958   2.1243670  )
         3        Li     tau(   3) = (   0.2496279   0.0885391   2.2794226  )
         4        Li     tau(   4) = (   0.4997418   0.5007889   2.3360550  )
         5        Li     tau(   5) = (   0.4998662   0.1613481   2.4844680  )
         6        Li     tau(   6) = (   0.2500083   0.5955028   2.5746886  )
         7        Li     tau(   7) = (   0.2501914   0.2410294   2.7063960  )
         8        Li     tau(   8) = (   0.5003605   0.6634448   2.8467500  )
         9        Li     tau(   9) = (   0.5003893   0.3519869   2.9467182  )
        10        Li     tau(  10) = (   0.2496395   0.6698885   2.2804297  )
        11        Li     tau(  11) = (   0.2498086   0.3423040   2.4207836  )
        12        Li     tau(  12) = (   0.4999918   0.7378306   2.5524910  )
        13        Li     tau(  13) = (   0.5001338   0.4219852   2.6427115  )
        14        Li     tau(  14) = (   0.5002583   0.0825444   2.7911246  )
        15        Li     tau(  15) = (   0.2503721   0.4947943   2.8477571  )
        16        Li     tau(  16) = (   0.2503971   0.1717375   3.0028127  )
        17        Li     tau(  17) = (   0.4996299   0.6318954   2.0584414  )
        18        Li     tau(  18) = (   0.4996107   0.2313464   2.1804614  )
        19        Li     tau(  19) = (   0.5003702  -0.0485619   3.0687382  )
        20        Li     tau(  20) = (   0.7496028   0.4115958   2.1243669  )
        21        Li     tau(  21) = (   0.7496279   0.0885391   2.2794225  )
        22        Li     tau(  22) = (   0.9997418   0.5007889   2.3360550  )
        23        Li     tau(  23) = (   0.9998662   0.1613482   2.4844680  )
        24        Li     tau(  24) = (   0.7500083   0.5955027   2.5746886  )
        25        Li     tau(  25) = (   0.7501914   0.2410294   2.7063959  )
        26        Li     tau(  26) = (   1.0003605   0.6634449   2.8467499  )
        27        Li     tau(  27) = (   1.0003894   0.3519870   2.9467183  )
        28        Li     tau(  28) = (   0.7496396   0.6698885   2.2804297  )
        29        Li     tau(  29) = (   0.7498086   0.3423040   2.4207836  )
        30        Li     tau(  30) = (   0.9999917   0.7378306   2.5524909  )
        31        Li     tau(  31) = (   1.0001338   0.4219852   2.6427116  )
        32        Li     tau(  32) = (   1.0002583   0.0825445   2.7911246  )
        33        Li     tau(  33) = (   0.7503721   0.4947942   2.8477571  )
        34        Li     tau(  34) = (   0.7503972   0.1717376   3.0028126  )
        35        Li     tau(  35) = (   0.9996300   0.6318953   2.0584414  )
        36        Li     tau(  36) = (   0.9996107   0.2313464   2.1804613  )

   Crystallographic axes

     site n.     atom                  positions (cryst. coord.)
         1        Li     tau(   1) = (  0.0165573 -0.0647494  0.5985236  )
         2        Li     tau(   2) = (  0.1124042  0.5487944  0.4143344  )
         3        Li     tau(   3) = (  0.2201149  0.1180522  0.4445763  )
         4        Li     tau(   4) = (  0.3328121  0.6677186  0.4556218  )
         5        Li     tau(   5) = (  0.4460835  0.2151309  0.4845682  )
         6        Li     tau(   6) = (  0.0515073  0.7940037  0.5021647  )
         7        Li     tau(   7) = (  0.1698483  0.3213725  0.5278528  )
         8        Li     tau(   8) = (  0.2792122  0.8845931  0.5552273  )
         9        Li     tau(   9) = (  0.3830603  0.4693158  0.5747250  )
        10        Li     tau(  10) = (  0.0263434  0.8931847  0.4447727  )
        11        Li     tau(  11) = (  0.1357073  0.4564053  0.4721472  )
        12        Li     tau(  12) = (  0.2540482  0.9837741  0.4978353  )
        13        Li     tau(  13) = (  0.3594721  0.5626469  0.5154318  )
        14        Li     tau(  14) = (  0.4727434  0.1100592  0.5443782  )
        15        Li     tau(  15) = (  0.0854407  0.6597257  0.5554237  )
        16        Li     tau(  16) = (  0.1931513  0.2289833  0.5856656  )
        17        Li     tau(  17) = (  0.2889981  0.8425272  0.4014764  )
        18        Li     tau(  18) = (  0.4224952  0.3084618  0.4252750  )
        19        Li     tau(  19) = (  0.5165575 -0.0647493  0.5985236  )
        20        Li     tau(  20) = (  0.6124042  0.5487944  0.4143344  )
        21        Li     tau(  21) = (  0.7201149  0.1180521  0.4445763  )
        22        Li     tau(  22) = (  0.8328121  0.6677186  0.4556218  )
        23        Li     tau(  23) = (  0.9460835  0.2151309  0.4845682  )
        24        Li     tau(  24) = (  0.5515074  0.7940037  0.5021647  )
        25        Li     tau(  25) = (  0.6698483  0.3213725  0.5278528  )
        26        Li     tau(  26) = (  0.7792122  0.8845932  0.5552273  )
        27        Li     tau(  27) = (  0.8830604  0.4693161  0.5747250  )
        28        Li     tau(  28) = (  0.5263434  0.8931846  0.4447727  )
        29        Li     tau(  29) = (  0.6357073  0.4564053  0.4721472  )
        30        Li     tau(  30) = (  0.7540482  0.9837741  0.4978353  )
        31        Li     tau(  31) = (  0.8594721  0.5626469  0.5154318  )
[...]
     atom    3 type  1   force =    -0.00001509    0.00066909   -0.00732760
     atom    4 type  1   force =    -0.00008683   -0.00800142   -0.00045742
     atom    5 type  1   force =     0.00002430    0.00821377    0.00449177
     atom    6 type  1   force =     0.00009938    0.00337685   -0.00271939
     atom    7 type  1   force =    -0.00001138   -0.00048757    0.00119692
     atom    8 type  1   force =    -0.00002705    0.00205905    0.00797083
     atom    9 type  1   force =     0.00001603    0.00342703    0.04780264
     atom   10 type  1   force =     0.00002707   -0.00205906   -0.00797078
     atom   11 type  1   force =     0.00001136    0.00048757   -0.00119690
     atom   12 type  1   force =    -0.00009938   -0.00337685    0.00271939
     atom   13 type  1   force =    -0.00002427   -0.00821376   -0.00449178
     atom   14 type  1   force =     0.00008684    0.00800142    0.00045744
     atom   15 type  1   force =     0.00001508   -0.00066909    0.00732762
     atom   16 type  1   force =    -0.00002267    0.00752269    0.06790599
     atom   17 type  1   force =    -0.00003727    0.01232214   -0.09328834
     atom   18 type  1   force =    -0.00001603   -0.00342702   -0.04780266
     atom   19 type  1   force =     0.00003727   -0.01232214    0.09328833
     atom   20 type  1   force =     0.00002266   -0.00752269   -0.06790598
     atom   21 type  1   force =    -0.00001508    0.00066910   -0.00732762
     atom   22 type  1   force =    -0.00008684   -0.00800144   -0.00045743
     atom   23 type  1   force =     0.00002428    0.00821377    0.00449178
     atom   24 type  1   force =     0.00009938    0.00337684   -0.00271939
     atom   25 type  1   force =    -0.00001135   -0.00048757    0.00119693
     atom   26 type  1   force =    -0.00002706    0.00205907    0.00797077
     atom   27 type  1   force =     0.00001602    0.00342703    0.04780266
     atom   28 type  1   force =     0.00002706   -0.00205906   -0.00797079
     atom   29 type  1   force =     0.00001136    0.00048757   -0.00119693
     atom   30 type  1   force =    -0.00009938   -0.00337684    0.00271941
     atom   31 type  1   force =    -0.00002429   -0.00821377   -0.00449175
     atom   32 type  1   force =     0.00008683    0.00800144    0.00045743
     atom   33 type  1   force =     0.00001507   -0.00066909    0.00732763
     atom   34 type  1   force =    -0.00002266    0.00752272    0.06790593
     atom   35 type  1   force =    -0.00003729    0.01232213   -0.09328834
     atom   36 type  1   force =    -0.00001602   -0.00342703   -0.04780267
     The ionic contribution  to forces
     atom    1 type  1   force =     0.00012571   -0.16613724   11.07307989
     atom    2 type  1   force =     0.00019296   -0.17137690  -10.19434271
     atom    3 type  1   force =     0.00001905    0.08121407   -7.04017057
     atom    4 type  1   force =    -0.00026067   -0.07682444   -5.43493912
     atom    5 type  1   force =     0.00014389    0.07213008   -1.90670177
     atom    6 type  1   force =     0.00031302   -0.02222299    0.26270393
     atom    7 type  1   force =    -0.00017239    0.01470298    3.44482853
     atom    8 type  1   force =    -0.00028822   -0.09060087    6.91883485
     atom    9 type  1   force =    -0.00002815    0.11024316    9.27408474
     atom   10 type  1   force =     0.00028857    0.09060073   -6.91883318
     atom   11 type  1   force =     0.00017224   -0.01470296   -3.44482653
     atom   12 type  1   force =    -0.00031311    0.02222299   -0.26270217
     atom   13 type  1   force =    -0.00014363   -0.07212999    1.90670152
     atom   14 type  1   force =     0.00026075    0.07682432    5.43493846
     atom   15 type  1   force =    -0.00001896   -0.08121411    7.04017190
     atom   16 type  1   force =    -0.00019275    0.17137659   10.19434417
     atom   17 type  1   force =    -0.00012536    0.16613718  -11.07307972
     atom   18 type  1   force =     0.00002848   -0.11024268   -9.27408533
     atom   19 type  1   force =     0.00012515   -0.16613733   11.07307960
     atom   20 type  1   force =     0.00019265   -0.17137673  -10.19434369
     atom   21 type  1   force =     0.00001888    0.08121441   -7.04017351
     atom   22 type  1   force =    -0.00026082   -0.07682463   -5.43493890
     atom   23 type  1   force =     0.00014382    0.07213006   -1.90670184
     atom   24 type  1   force =     0.00031297   -0.02222310    0.26270383
     atom   25 type  1   force =    -0.00017206    0.01470295    3.44482614
     atom   26 type  1   force =    -0.00028840   -0.09060061    6.91883187
     atom   27 type  1   force =    -0.00002862    0.11024249    9.27408578
     atom   28 type  1   force =     0.00028826    0.09060070   -6.91883355
     atom   29 type  1   force =     0.00017217   -0.01470303   -3.44482852
     atom   30 type  1   force =    -0.00031302    0.02222313   -0.26270500
     atom   31 type  1   force =    -0.00014382   -0.07213017    1.90670186
     atom   32 type  1   force =     0.00026060    0.07682461    5.43493954
     atom   33 type  1   force =    -0.00001926   -0.08121412    7.04017286
     atom   34 type  1   force =    -0.00019281    0.17137705   10.19434233
     atom   35 type  1   force =    -0.00012557    0.16613713  -11.07307992
     atom   36 type  1   force =     0.00002846   -0.11024274   -9.27408578
     The local contribution  to forces
     atom    1 type  1   force =    -0.00016672    0.15469822  -11.19729152
     atom    2 type  1   force =    -0.00021761    0.16902054   10.28021163
     atom    3 type  1   force =    -0.00000632   -0.08081052    7.03646343
     atom    4 type  1   force =     0.00035225    0.08624649    5.43829961
     atom    5 type  1   force =    -0.00016758   -0.08143154    1.89953471
     atom    6 type  1   force =    -0.00041430    0.01899416   -0.25887103
     atom    7 type  1   force =     0.00018711   -0.01217434   -3.44609962
     atom    8 type  1   force =     0.00031424    0.07893832   -6.92017178
     atom    9 type  1   force =     0.00000680   -0.09570409   -9.31672373
     atom   10 type  1   force =    -0.00031460   -0.07893820    6.92017014
     atom   11 type  1   force =    -0.00018692    0.01217432    3.44609764
     atom   12 type  1   force =     0.00041440   -0.01899416    0.25886930
     atom   13 type  1   force =     0.00016730    0.08143145   -1.89953441
     atom   14 type  1   force =    -0.00035236   -0.08624637   -5.43829893
     atom   15 type  1   force =     0.00000627    0.08081056   -7.03646474
     atom   16 type  1   force =     0.00021743   -0.16902021  -10.28021313
     atom   17 type  1   force =     0.00016641   -0.15469817   11.19729136
     atom   18 type  1   force =    -0.00000712    0.09570364    9.31672439
     atom   19 type  1   force =    -0.00016624    0.15469830  -11.19729120
     atom   20 type  1   force =    -0.00021731    0.16902034   10.28021266
     atom   21 type  1   force =    -0.00000617   -0.08081085    7.03646638
     atom   22 type  1   force =     0.00035241    0.08624668    5.43829940
     atom   23 type  1   force =    -0.00016749   -0.08143153    1.89953478
     atom   24 type  1   force =    -0.00041426    0.01899428   -0.25887092
     atom   25 type  1   force =     0.00018674   -0.01217432   -3.44609723
     atom   26 type  1   force =     0.00031442    0.07893807   -6.92016881
     atom   27 type  1   force =     0.00000726   -0.09570349   -9.31672483
     atom   28 type  1   force =    -0.00031427   -0.07893816    6.92017052
     atom   29 type  1   force =    -0.00018687    0.01217439    3.44609964
     atom   30 type  1   force =     0.00041430   -0.01899430    0.25887211
     atom   31 type  1   force =     0.00016750    0.08143163   -1.89953479
     atom   32 type  1   force =    -0.00035219   -0.08624666   -5.43830000
     atom   33 type  1   force =     0.00000652    0.08081059   -7.03646570
     atom   34 type  1   force =     0.00021745   -0.16902066  -10.28021119
     atom   35 type  1   force =     0.00016664   -0.15469810   11.19729154
     atom   36 type  1   force =    -0.00000712    0.09570371    9.31672486
     The core correction contribution to forces
     atom    1 type  1   force =     0.00000000    0.00000000    0.00000000
     atom    2 type  1   force =     0.00000000    0.00000000    0.00000000
     atom    3 type  1   force =     0.00000000    0.00000000    0.00000000
     atom    4 type  1   force =     0.00000000    0.00000000    0.00000000
     atom    5 type  1   force =     0.00000000    0.00000000    0.00000000
     atom    6 type  1   force =     0.00000000    0.00000000    0.00000000
     atom    7 type  1   force =     0.00000000    0.00000000    0.00000000
     atom    8 type  1   force =     0.00000000    0.00000000    0.00000000
     atom    9 type  1   force =     0.00000000    0.00000000    0.00000000
     atom   10 type  1   force =     0.00000000    0.00000000    0.00000000
     atom   11 type  1   force =     0.00000000    0.00000000    0.00000000
     atom   12 type  1   force =     0.00000000    0.00000000    0.00000000
     atom   13 type  1   force =     0.00000000    0.00000000    0.00000000
     atom   14 type  1   force =     0.00000000    0.00000000    0.00000000
     atom   15 type  1   force =     0.00000000    0.00000000    0.00000000
     atom   16 type  1   force =     0.00000000    0.00000000    0.00000000
     atom   17 type  1   force =     0.00000000    0.00000000    0.00000000
     atom   18 type  1   force =     0.00000000    0.00000000    0.00000000
     atom   19 type  1   force =     0.00000000    0.00000000    0.00000000
     atom   20 type  1   force =     0.00000000    0.00000000    0.00000000
     atom   21 type  1   force =     0.00000000    0.00000000    0.00000000
     atom   22 type  1   force =     0.00000000    0.00000000    0.00000000
     atom   23 type  1   force =     0.00000000    0.00000000    0.00000000
     atom   24 type  1   force =     0.00000000    0.00000000    0.00000000
     atom   25 type  1   force =     0.00000000    0.00000000    0.00000000
     atom   26 type  1   force =     0.00000000    0.00000000    0.00000000
     atom   27 type  1   force =     0.00000000    0.00000000    0.00000000
     atom   28 type  1   force =     0.00000000    0.00000000    0.00000000
     atom   29 type  1   force =     0.00000000    0.00000000    0.00000000
     atom   30 type  1   force =     0.00000000    0.00000000    0.00000000
     atom   31 type  1   force =     0.00000000    0.00000000    0.00000000
     atom   32 type  1   force =     0.00000000    0.00000000    0.00000000
     atom   33 type  1   force =     0.00000000    0.00000000    0.00000000
     atom   34 type  1   force =     0.00000000    0.00000000    0.00000000
     atom   35 type  1   force =     0.00000000    0.00000000    0.00000000
     atom   36 type  1   force =     0.00000000    0.00000000    0.00000000
     The Hubbard contrib.    to forces
     atom    1 type  1   force =     0.00000000    0.00000000    0.00000000
     atom    2 type  1   force =     0.00000000    0.00000000    0.00000000
     atom    3 type  1   force =     0.00000000    0.00000000    0.00000000
     atom    4 type  1   force =     0.00000000    0.00000000    0.00000000
     atom    5 type  1   force =     0.00000000    0.00000000    0.00000000
     atom    6 type  1   force =     0.00000000    0.00000000    0.00000000
     atom    7 type  1   force =     0.00000000    0.00000000    0.00000000
     atom    8 type  1   force =     0.00000000    0.00000000    0.00000000
     atom    9 type  1   force =     0.00000000    0.00000000    0.00000000
     atom   10 type  1   force =     0.00000000    0.00000000    0.00000000
     atom   11 type  1   force =     0.00000000    0.00000000    0.00000000
     atom   12 type  1   force =     0.00000000    0.00000000    0.00000000
     atom   13 type  1   force =     0.00000000    0.00000000    0.00000000
     atom   14 type  1   force =     0.00000000    0.00000000    0.00000000
     atom   15 type  1   force =     0.00000000    0.00000000    0.00000000
     atom   16 type  1   force =     0.00000000    0.00000000    0.00000000
     atom   17 type  1   force =     0.00000000    0.00000000    0.00000000
     atom   18 type  1   force =     0.00000000    0.00000000    0.00000000
     atom   19 type  1   force =     0.00000000    0.00000000    0.00000000
     atom   20 type  1   force =     0.00000000    0.00000000    0.00000000
     atom   21 type  1   force =     0.00000000    0.00000000    0.00000000
     atom   22 type  1   force =     0.00000000    0.00000000    0.00000000
     atom   23 type  1   force =     0.00000000    0.00000000    0.00000000
     atom   24 type  1   force =     0.00000000    0.00000000    0.00000000
     atom   25 type  1   force =     0.00000000    0.00000000    0.00000000
     atom   26 type  1   force =     0.00000000    0.00000000    0.00000000
     atom   27 type  1   force =     0.00000000    0.00000000    0.00000000
     atom   28 type  1   force =     0.00000000    0.00000000    0.00000000
     atom   29 type  1   force =     0.00000000    0.00000000    0.00000000
     atom   30 type  1   force =     0.00000000    0.00000000    0.00000000
     atom   31 type  1   force =     0.00000000    0.00000000    0.00000000
     atom   32 type  1   force =     0.00000000    0.00000000    0.00000000
     atom   33 type  1   force =     0.00000000    0.00000000    0.00000000
     atom   34 type  1   force =     0.00000000    0.00000000    0.00000000
     atom   35 type  1   force =     0.00000000    0.00000000    0.00000000
     atom   36 type  1   force =     0.00000000    0.00000000    0.00000000
     The SCF correction term to forces
     atom    1 type  1   force =    -0.00000000   -0.00000000    0.00000002
     atom    2 type  1   force =     0.00000000   -0.00000000   -0.00000001
     atom    3 type  1   force =    -0.00000000    0.00000000    0.00000001
     atom    4 type  1   force =     0.00000000   -0.00000001    0.00000001
     atom    5 type  1   force =     0.00000000    0.00000000    0.00000002
     atom    6 type  1   force =    -0.00000001    0.00000000    0.00000002
     atom    7 type  1   force =    -0.00000000    0.00000000    0.00000001
     atom    8 type  1   force =     0.00000000   -0.00000001    0.00000002
     atom    9 type  1   force =     0.00000000    0.00000000    0.00000001
     atom   10 type  1   force =    -0.00000000    0.00000001    0.00000001
     atom   11 type  1   force =    -0.00000000   -0.00000000    0.00000001
     atom   12 type  1   force =    -0.00000000    0.00000000    0.00000001
     atom   13 type  1   force =     0.00000000   -0.00000001    0.00000001
     atom   14 type  1   force =     0.00000000    0.00000000    0.00000001
     atom   15 type  1   force =    -0.00000000   -0.00000000    0.00000001
     atom   16 type  1   force =    -0.00000000    0.00000001    0.00000002
     atom   17 type  1   force =    -0.00000000    0.00000000   -0.00000002
     atom   18 type  1   force =     0.00000000   -0.00000000    0.00000000
     atom   19 type  1   force =     0.00000000    0.00000000    0.00000003
     atom   20 type  1   force =     0.00000000   -0.00000001   -0.00000000
     atom   21 type  1   force =     0.00000000   -0.00000000    0.00000001
     atom   22 type  1   force =     0.00000000   -0.00000000    0.00000002
     atom   23 type  1   force =    -0.00000000    0.00000000    0.00000001
     atom   24 type  1   force =     0.00000000   -0.00000000    0.00000002
     atom   25 type  1   force =     0.00000000    0.00000000    0.00000000
     atom   26 type  1   force =    -0.00000000   -0.00000001    0.00000001
     atom   27 type  1   force =    -0.00000000    0.00000001    0.00000001
     atom   28 type  1   force =     0.00000000    0.00000001    0.00000000
     atom   29 type  1   force =     0.00000000   -0.00000001    0.00000002
     atom   30 type  1   force =     0.00000000    0.00000000    0.00000001
     atom   31 type  1   force =    -0.00000000   -0.00000000    0.00000001
     atom   32 type  1   force =    -0.00000000   -0.00000000   -0.00000000
     atom   33 type  1   force =     0.00000000   -0.00000000    0.00000001
     atom   34 type  1   force =    -0.00000000    0.00000001    0.00000002
     atom   35 type  1   force =    -0.00000000   -0.00000000   -0.00000001
     atom   36 type  1   force =    -0.00000000   -0.00000000    0.00000001

     Total force =     0.000060     Total SCF correction =     0.000000
     Message from routine punch:
     Nothing written, as per user request (disk_io='none')

     General routines

     Parallel routines

     PAW routines

     Environ routines

   This run was terminated on:  20:48:52  27Dec2024

   JOB DONE.