     Program PWSCF v.7.4 starts on  2Jan2025 at  1:10:51

     Reading input from espresso.pwi
Warning: card &CELL ignored
Warning: card    PRESS_CONV_THR   = 0.1 ignored
Warning: card    CELL_DOFREE      = 'ALL' ignored
Warning: card / ignored
Warning: card &FCP ignored
Warning: card / ignored
Warning: card &RISM ignored
Warning: card / ignored

     Current dimensions of program PWSCF are:
     Max number of different atomic species (ntypx) = 10
     Max number of k-points (npk) =  40000
     Max angular momentum in pseudopotentials (lmaxx) =  4

     IMPORTANT: XC functional enforced from input :
     Exchange-correlation= PBE
                           (   1   4   3   4   0   0   0)
     Any further DFT definition will be discarded
     Please, verify this is what you really want

     Reading input from environ.in:
     * using ionic solvent mode
     * setting boundary derivatives method to SSCS default
     * setting electrolyte-boundary derivatives method to SSCS default

Environ Warning (1001): card EOF ignored

     K-points division:     npool     =       2
     R & G space division:  proc/nbgrp/npool/nimage =     256
     Subspace diagonalization in iterative solution of the eigenvalue problem:
     a serial algorithm will be used

     Using Slab Decomposition

     bravais-lattice index     =           12
     lattice parameter (alat)  =      11.2436  a.u.
     unit-cell volume          =   15431.5264 (a.u.)^3
     number of atoms/cell      =           28
     number of atomic types    =            1
     number of electrons       =        84.00
     number of Kohn-Sham states=           63
     kinetic-energy cutoff     =      80.0000  Ry
     charge density cutoff     =     800.0000  Ry
     scf convergence threshold =      1.0E-14
     mixing beta               =       0.2000
     number of iterations used =            8  local-TF  mixing
     Exchange-correlation= PBE
                           (   1   4   3   4   0   0   0)

                                  Environ Setup Summary

          O. Andreussi, I. Dabo and N. Marzari, J. Chem. Phys. 136, 064102 (2012)
          F. Nattino, M. Truscott, N. Marzari, and O. Andreussi, J. Chem. Phys. 150, 041722 (2019)

     in publications or presentations arising from this work.

     Parameters

     compensation onset threshold      =               0.1000E+00
     static permittivity               =                    89.90
     surface tension in input (dyn/cm) =                    37.30
     surface tension in internal units =               0.4792E-04

     Solvent Boundary

     solvent mode                      =                    ionic
     derivatives method                =                   lowmem
     electrolyte derivatives method    =                   lowmem
     numerical core for derivatives    =                      fft
     switching function adopted        =                     SCCS
     density limit for vacuum region   =               0.5000E-02
     density limit for bulk solvent    =               0.1000E-03
     soft-sphere radius mode           =                    bondi
     soft-sphere softness              =                     0.50
     alpha                             =                     1.32

     Electrostatic Setup

     electrostatic problem to solve    =                    modpb
     numerical solver adopted          =                   newton
     type of auxiliary density adopted =                     none
     numerical core for poisson        =                      fft
     adopting a nested solver scheme
     inner solver                      =                       cg
     inner core                        =                      fft
     type of pbc corrections           =                parabolic
     numerical core for corrections    =                      1da

     >>>>> Grand-Canonical SCF is activated <<<<<
     Initial Total Charge  =     0.000000 e
     Target Fermi Energy   =    -3.404000 eV
     Thr. of Fermi Energy  =     0.001000 eV
     Wave-shift of Kerker  =     0.400000 bohr^-1
     Wave-shift of Hartree =     1.500000 bohr^-1
     Mixing Rate of Fermi  =     0.050000

     celldm(1)=  11.243615  celldm(2)=   1.258306  celldm(3)=   8.704589
     celldm(4)=  -0.132454  celldm(5)=   0.000000  celldm(6)=   0.000000

     crystal axes: (cart. coord. in units of alat)
               a(1) = (   1.000000   0.000000   0.000000 )
               a(2) = (  -0.166667   1.247219   0.000000 )
               a(3) = (   0.000000   0.000000   8.704589 )

     reciprocal axes: (cart. coord. in units 2 pi/alat)
               b(1) = (  1.000000  0.133631 -0.000000 )
               b(2) = (  0.000000  0.801784  0.000000 )
               b(3) = (  0.000000 -0.000000  0.114882 )

     PseudoPot. # 1 for Li read from file:
     /work/e89/e89/ba3g18/Repos/Pseudopotentials/Pslibrary/Li.pbe-sl-kjpaw_psl.1.0.0.UPF
     MD5 check sum: 3f4d2cafebb47c6c3aa8ed472e6f074d
     Pseudo is Projector augmented-wave, Zval =  3.0
     Generated using 'atomic' code by A. Dal Corso  v.7.4
     Shape of augmentation charge: PSQ
     Using radial grid of 1017 points,  4 beta functions with:
                l(1) =   0
                l(2) =   0
                l(3) =   1
                l(4) =   1
     Q(r) pseudized with 0 coefficients

     atomic species   valence    mass     pseudopotential
     Li                3.00     6.94000     Li( 1.00)

     No symmetry found

                                    s                        frac. trans.

      isym =  1     identity

 cryst.   s( 1) = (     1          0          0      )
                  (     0          1          0      )
                  (     0          0          1      )

 cart.    s( 1) = (  1.0000000  0.0000000  0.0000000 )
                  (  0.0000000  1.0000000  0.0000000 )
                  (  0.0000000  0.0000000  1.0000000 )

     point group C_1 (1)
     there are  1 classes
     the character table:

       E
A      1.00

     the symmetry operations in each class and the name of the first element:

     E        1
          identity

   Cartesian axes

     site n.     atom                  positions (alat units)
         1        Li     tau(   1) = (   0.0461527  -0.0421070   5.3576242  )
         2        Li     tau(   2) = (  -0.0461472   0.8438920   3.3469648  )
         3        Li     tau(   3) = (   0.1277859   0.3571317   3.4916267  )
         4        Li     tau(   4) = (   0.1714210   1.1680815   3.6818215  )
         5        Li     tau(   5) = (   0.3011134   0.7103495   3.7856439  )
         6        Li     tau(   6) = (  -0.0004688   0.2804061   3.9696468  )
         7        Li     tau(   7) = (  -0.0265281   1.0614705   4.1162921  )
         8        Li     tau(   8) = (   0.1802878   0.6323309   4.2748329  )
         9        Li     tau(   9) = (   0.3197151   0.1694517   4.4297579  )
        10        Li     tau(  10) = (   0.3598618   0.9875309   4.5882970  )
        11        Li     tau(  11) = (   0.0004703   0.5213766   4.7349417  )
        12        Li     tau(  12) = (   0.1988891   0.0914357   4.9189459  )
        13        Li     tau(  13) = (   0.1619093   0.8809203   5.0227667  )
        14        Li     tau(  14) = (   0.3722073   0.4446538   5.2129610  )
        15        Li     tau(  15) = (   0.5461557  -0.0421072   5.3576241  )
        16        Li     tau(  16) = (   0.4538311   0.8438919   3.3469661  )
        17        Li     tau(  17) = (   0.6277967   0.3571319   3.4916281  )
        18        Li     tau(  18) = (   0.6714235   1.1680850   3.6818235  )
        19        Li     tau(  19) = (   0.8011091   0.7103467   3.7856442  )
        20        Li     tau(  20) = (   0.4995343   0.2804081   3.9696482  )
        21        Li     tau(  21) = (   0.4734722   1.0614701   4.1162928  )
        22        Li     tau(  22) = (   0.6802878   0.6323300   4.2748311  )
        23        Li     tau(  23) = (   0.8197148   0.1694515   4.4297578  )
        24        Li     tau(  24) = (   0.8598625   0.9875305   4.5882978  )
        25        Li     tau(  25) = (   0.5004701   0.5213762   4.7349423  )
        26        Li     tau(  26) = (   0.6988872   0.0914355   4.9189457  )
        27        Li     tau(  27) = (   0.6619100   0.8809203   5.0227669  )
        28        Li     tau(  28) = (   0.8722090   0.4446539   5.2129617  )

   Crystallographic axes

     site n.     atom                  positions (cryst. coord.)
         1        Li     tau(   1) = (  0.0405259 -0.0337607  0.6154942  )
         2        Li     tau(   2) = (  0.0666228  0.6766189  0.3845058  )
         3        Li     tau(   3) = (  0.1755098  0.2863424  0.4011248  )
         4        Li     tau(   4) = (  0.3275128  0.9365488  0.4229748  )
         5        Li     tau(   5) = (  0.3960381  0.5695467  0.4349021  )
         6        Li     tau(   6) = (  0.0370022  0.2248251  0.4560407  )
         7        Li     tau(   7) = (  0.1153172  0.8510699  0.4728876  )
         8        Li     tau(   8) = (  0.2647867  0.5069927  0.4911011  )
         9        Li     tau(   9) = (  0.3423591  0.1358636  0.5088991  )
        10        Li     tau(  10) = (  0.4918265  0.7917863  0.5271124  )
        11        Li     tau(  11) = (  0.0701424  0.4180313  0.5439592  )
        12        Li     tau(  12) = (  0.2111078  0.0733117  0.5650980  )
        13        Li     tau(  13) = (  0.2796275  0.7063077  0.5770251  )
        14        Li     tau(  14) = (  0.4316267  0.3565162  0.5988750  )
        15        Li     tau(  15) = (  0.5405289 -0.0337608  0.6154942  )
        16        Li     tau(  16) = (  0.5666012  0.6766189  0.3845059  )
        17        Li     tau(  17) = (  0.6755205  0.2863425  0.4011250  )
        18        Li     tau(  18) = (  0.8275157  0.9365516  0.4229750  )
        19        Li     tau(  19) = (  0.8960334  0.5695445  0.4349021  )
        20        Li     tau(  20) = (  0.5370055  0.2248267  0.4560408  )
        21        Li     tau(  21) = (  0.6153174  0.8510695  0.4728877  )
        22        Li     tau(  22) = (  0.7647866  0.5069920  0.4911009  )
        23        Li     tau(  23) = (  0.8423588  0.1358635  0.5088991  )
        24        Li     tau(  24) = (  0.9918270  0.7917860  0.5271125  )
        25        Li     tau(  25) = (  0.5701421  0.4180310  0.5439593  )
        26        Li     tau(  26) = (  0.7111058  0.0733115  0.5650980  )
        27        Li     tau(  27) = (  0.7796281  0.7063076  0.5770252  )
        28        Li     tau(  28) = (  0.9316285  0.3565163  0.5988751  )

     number of k points=    50  Marzari-Vanderbilt smearing, width (Ry)=  0.0100
                       cart. coord. in units 2pi/alat
        k(    1) = (   0.0000000   0.0000000   0.0000000), wk =   0.0202020
        k(    2) = (   0.0000000   0.0890871   0.0000000), wk =   0.0404040
        k(    3) = (   0.0000000   0.1781742   0.0000000), wk =   0.0404040
        k(    4) = (   0.0000000   0.2672613   0.0000000), wk =   0.0404040
        k(    5) = (   0.0000000   0.3563484   0.0000000), wk =   0.0404040
        k(    6) = (   0.0909091   0.0121483   0.0000000), wk =   0.0404040
[...]
     atom   12 type  1   force =    -0.00002085    0.00006527    0.03285100
     atom   13 type  1   force =    -0.00001358   -0.00340254    0.04483791
     atom   14 type  1   force =    -0.00007343    0.00660025    0.04439449
     atom   15 type  1   force =     0.00004374   -0.00431816    0.02783016
     atom   16 type  1   force =    -0.00004278    0.00431829   -0.02783024
     atom   17 type  1   force =     0.00007328   -0.00660025   -0.04439451
     atom   18 type  1   force =     0.00001358    0.00340237   -0.04483810
     atom   19 type  1   force =     0.00002077   -0.00006521   -0.03285102
     atom   20 type  1   force =    -0.00003463   -0.00079264   -0.02433147
     atom   21 type  1   force =     0.00004593    0.00040965   -0.01478936
     atom   22 type  1   force =    -0.00004675   -0.00012263   -0.00459706
     atom   23 type  1   force =     0.00004677    0.00012264    0.00459704
     atom   24 type  1   force =    -0.00004595   -0.00040961    0.01478943
     atom   25 type  1   force =     0.00003456    0.00079262    0.02433150
     atom   26 type  1   force =    -0.00002083    0.00006528    0.03285096
     atom   27 type  1   force =    -0.00001360   -0.00340258    0.04483785
     atom   28 type  1   force =    -0.00007347    0.00660029    0.04439435

     Forces acting on atoms (cartesian axes, Ry/au):

     atom    1 type  1   force =    -0.00000620    0.00012846   -0.00013702
     atom    2 type  1   force =    -0.00000000   -0.00012867    0.00013723
     atom    3 type  1   force =    -0.00012014    0.00031093   -0.00008575
     atom    4 type  1   force =    -0.00008722   -0.00009249   -0.00020451
     atom    5 type  1   force =     0.00030572   -0.00016265   -0.00009902
     atom    6 type  1   force =     0.00001209   -0.00013979   -0.00031049
     atom    7 type  1   force =    -0.00002773   -0.00001958   -0.00003775
     atom    8 type  1   force =     0.00008938    0.00018162   -0.00003013
     atom    9 type  1   force =    -0.00008945   -0.00018172    0.00002953
     atom   10 type  1   force =     0.00002791    0.00001958    0.00003813
     atom   11 type  1   force =    -0.00001127    0.00014017    0.00031109
     atom   12 type  1   force =    -0.00030759    0.00016193    0.00009910
     atom   13 type  1   force =     0.00008821    0.00009374    0.00020528
     atom   14 type  1   force =     0.00012424   -0.00031110    0.00008644
     atom   15 type  1   force =    -0.00000809    0.00012847   -0.00013692
     atom   16 type  1   force =     0.00001415   -0.00012866    0.00013669
     atom   17 type  1   force =    -0.00012716    0.00031080   -0.00008668
     atom   18 type  1   force =    -0.00008884   -0.00009488   -0.00020579
     atom   19 type  1   force =     0.00030859   -0.00016099   -0.00009940
     atom   20 type  1   force =     0.00001025   -0.00014108   -0.00031129
     atom   21 type  1   force =    -0.00002782   -0.00001929   -0.00003813
     atom   22 type  1   force =     0.00008939    0.00018210   -0.00002911
     atom   23 type  1   force =    -0.00008927   -0.00018170    0.00002967
     atom   24 type  1   force =     0.00002754    0.00001973    0.00003765
     atom   25 type  1   force =    -0.00001119    0.00014052    0.00031068
     atom   26 type  1   force =    -0.00030637    0.00016202    0.00009925
     atom   27 type  1   force =     0.00008776    0.00009372    0.00020519
     atom   28 type  1   force =     0.00012309   -0.00031121    0.00008608
     The non-local contrib.  to forces
     atom    1 type  1   force =     0.00088386   -0.01897210    0.10105893
     atom    2 type  1   force =    -0.00088989    0.01897298   -0.10105892
     atom    3 type  1   force =     0.00041601   -0.02334152   -0.07199069
     atom    4 type  1   force =     0.00164316    0.00508599   -0.01633443
     atom    5 type  1   force =    -0.00105914   -0.00214632    0.00175661
     atom    6 type  1   force =     0.00013498    0.00071061    0.00091300
     atom    7 type  1   force =    -0.00068229   -0.00087633    0.00129629
     atom    8 type  1   force =     0.00011238    0.00046790    0.00039233
     atom    9 type  1   force =    -0.00011271   -0.00046836   -0.00039333
     atom   10 type  1   force =     0.00068281    0.00087644   -0.00129645
     atom   11 type  1   force =    -0.00013366   -0.00071049   -0.00091240
     atom   12 type  1   force =     0.00105784    0.00214560   -0.00175648
     atom   13 type  1   force =    -0.00164275   -0.00508353    0.01633597
     atom   14 type  1   force =    -0.00041259    0.02334040    0.07199201
     atom   15 type  1   force =     0.00088182   -0.01897193    0.10105907
     atom   16 type  1   force =    -0.00087621    0.01897155   -0.10105875
     atom   17 type  1   force =     0.00041016   -0.02334039   -0.07199247
     atom   18 type  1   force =     0.00164254    0.00508163   -0.01633715
     atom   19 type  1   force =    -0.00105717   -0.00214467    0.00175556
     atom   20 type  1   force =     0.00013215    0.00070920    0.00091180
     atom   21 type  1   force =    -0.00068269   -0.00087617    0.00129631
     atom   22 type  1   force =     0.00011264    0.00046848    0.00039327
     atom   23 type  1   force =    -0.00011214   -0.00046829   -0.00039257
     atom   24 type  1   force =     0.00068211    0.00087659   -0.00129650
     atom   25 type  1   force =    -0.00013313   -0.00070996   -0.00091246
     atom   26 type  1   force =     0.00105859    0.00214569   -0.00175626
     atom   27 type  1   force =    -0.00164313   -0.00508392    0.01633556
     atom   28 type  1   force =    -0.00041333    0.02334054    0.07199156
     The ionic contribution  to forces
     atom    1 type  1   force =    -0.00366296   -0.18109291   13.15173632
     atom    2 type  1   force =     0.00357081    0.18109929  -13.15173603
     atom    3 type  1   force =    -0.00141476   -0.31752783  -11.91936731
     atom    4 type  1   force =    -0.00658879    0.18772207   -9.52307850
     atom    5 type  1   force =     0.00452135   -0.05162045   -7.71834417
     atom    6 type  1   force =    -0.00023448    0.00109893   -5.29270834
     atom    7 type  1   force =     0.00348768    0.01740853   -3.25110584
     atom    8 type  1   force =    -0.00092338   -0.03772809   -1.05835285
     atom    9 type  1   force =     0.00091659    0.03772216    1.05835142
     atom   10 type  1   force =    -0.00347851   -0.01740552    3.25109908
     atom   11 type  1   force =     0.00025808   -0.00109935    5.29270342
     atom   12 type  1   force =    -0.00453789    0.05159897    7.71836395
     atom   13 type  1   force =     0.00659973   -0.18768347    9.52308650
     atom   14 type  1   force =     0.00147198    0.31751316   11.91936462
     atom   15 type  1   force =    -0.00368931   -0.18109269   13.15173798
     atom   16 type  1   force =     0.00378324    0.18109289  -13.15173307
     atom   17 type  1   force =    -0.00151571   -0.31751129  -11.91937162
     atom   18 type  1   force =    -0.00660449    0.18765386   -9.52308868
     atom   19 type  1   force =     0.00453811   -0.05157645   -7.71837129
     atom   20 type  1   force =    -0.00029113    0.00107823   -5.29271109
     atom   21 type  1   force =     0.00347862    0.01741235   -3.25109841
     atom   22 type  1   force =    -0.00091913   -0.03771794   -1.05835875
     atom   23 type  1   force =     0.00092572    0.03772103    1.05835919
     atom   24 type  1   force =    -0.00348778   -0.01740207    3.25110493
     atom   25 type  1   force =     0.00026555   -0.00109080    5.29270973
     atom   26 type  1   force =    -0.00452078    0.05160208    7.71835902
     atom   27 type  1   force =     0.00659416   -0.18768767    9.52308340
     atom   28 type  1   force =     0.00145746    0.31751298   11.91936637
     The local contribution  to forces
     atom    1 type  1   force =     0.00272881    0.20451163  -13.28076234
     atom    2 type  1   force =    -0.00263582   -0.20451937   13.28076204
     atom    3 type  1   force =     0.00080497    0.34778085   12.03566625
     atom    4 type  1   force =     0.00484482   -0.19630338    9.58404621
     atom    5 type  1   force =    -0.00317740    0.05366940    7.74933942
     atom    6 type  1   force =     0.00014607   -0.00115673    5.31581643
     atom    7 type  1   force =    -0.00287906   -0.01696145    3.26456133
     atom    8 type  1   force =     0.00094715    0.03756445    1.06252748
     atom    9 type  1   force =    -0.00094005   -0.03755819   -1.06252548
     atom   10 type  1   force =     0.00286954    0.01695824   -3.26455382
     atom   11 type  1   force =    -0.00017023    0.00115739   -5.31581135
     atom   12 type  1   force =     0.00319332   -0.05364794   -7.74935935
     atom   13 type  1   force =    -0.00485518    0.19626326   -9.58405510
     atom   14 type  1   force =    -0.00086171   -0.34776495  -12.03566471
     atom   15 type  1   force =     0.00275567    0.20451126  -13.28076407
     atom   16 type  1   force =    -0.00285009   -0.20451141   13.28075863
     atom   17 type  1   force =     0.00090510    0.34776274   12.03567188
     atom   18 type  1   force =     0.00485953   -0.19623278    9.58405816
     atom   19 type  1   force =    -0.00319312    0.05362530    7.74936742
     atom   20 type  1   force =     0.00020387   -0.00113589    5.31581955
     atom   21 type  1   force =    -0.00286967   -0.01696515    3.26455345
     atom   22 type  1   force =     0.00094264    0.03755416    1.06253353
     atom   23 type  1   force =    -0.00094961   -0.03755711   -1.06253389
     atom   24 type  1   force =     0.00287917    0.01695478   -3.26456015
     atom   25 type  1   force =    -0.00017817    0.00114865   -5.31581805
     atom   26 type  1   force =     0.00317666   -0.05365109   -7.74935445
     atom   27 type  1   force =    -0.00484965    0.19626786   -9.58405158
     atom   28 type  1   force =    -0.00084755   -0.34776505  -12.03566622
     The core correction contribution to forces
     atom    1 type  1   force =     0.00000000    0.00000000    0.00000000
     atom    2 type  1   force =     0.00000000    0.00000000    0.00000000
     atom    3 type  1   force =     0.00000000    0.00000000    0.00000000
     atom    4 type  1   force =     0.00000000    0.00000000    0.00000000
     atom    5 type  1   force =     0.00000000    0.00000000    0.00000000
     atom    6 type  1   force =     0.00000000    0.00000000    0.00000000
     atom    7 type  1   force =     0.00000000    0.00000000    0.00000000
     atom    8 type  1   force =     0.00000000    0.00000000    0.00000000
     atom    9 type  1   force =     0.00000000    0.00000000    0.00000000
     atom   10 type  1   force =     0.00000000    0.00000000    0.00000000
     atom   11 type  1   force =     0.00000000    0.00000000    0.00000000
     atom   12 type  1   force =     0.00000000    0.00000000    0.00000000
     atom   13 type  1   force =     0.00000000    0.00000000    0.00000000
     atom   14 type  1   force =     0.00000000    0.00000000    0.00000000
     atom   15 type  1   force =     0.00000000    0.00000000    0.00000000
     atom   16 type  1   force =     0.00000000    0.00000000    0.00000000
     atom   17 type  1   force =     0.00000000    0.00000000    0.00000000
     atom   18 type  1   force =     0.00000000    0.00000000    0.00000000
     atom   19 type  1   force =     0.00000000    0.00000000    0.00000000
     atom   20 type  1   force =     0.00000000    0.00000000    0.00000000
     atom   21 type  1   force =     0.00000000    0.00000000    0.00000000
     atom   22 type  1   force =     0.00000000    0.00000000    0.00000000
     atom   23 type  1   force =     0.00000000    0.00000000    0.00000000
     atom   24 type  1   force =     0.00000000    0.00000000    0.00000000
     atom   25 type  1   force =     0.00000000    0.00000000    0.00000000
     atom   26 type  1   force =     0.00000000    0.00000000    0.00000000
     atom   27 type  1   force =     0.00000000    0.00000000    0.00000000
     atom   28 type  1   force =     0.00000000    0.00000000    0.00000000
     The Hubbard contrib.    to forces
     atom    1 type  1   force =     0.00000000    0.00000000    0.00000000
     atom    2 type  1   force =     0.00000000    0.00000000    0.00000000
     atom    3 type  1   force =     0.00000000    0.00000000    0.00000000
     atom    4 type  1   force =     0.00000000    0.00000000    0.00000000
     atom    5 type  1   force =     0.00000000    0.00000000    0.00000000
     atom    6 type  1   force =     0.00000000    0.00000000    0.00000000
     atom    7 type  1   force =     0.00000000    0.00000000    0.00000000
     atom    8 type  1   force =     0.00000000    0.00000000    0.00000000
     atom    9 type  1   force =     0.00000000    0.00000000    0.00000000
     atom   10 type  1   force =     0.00000000    0.00000000    0.00000000
     atom   11 type  1   force =     0.00000000    0.00000000    0.00000000
     atom   12 type  1   force =     0.00000000    0.00000000    0.00000000
     atom   13 type  1   force =     0.00000000    0.00000000    0.00000000
     atom   14 type  1   force =     0.00000000    0.00000000    0.00000000
     atom   15 type  1   force =     0.00000000    0.00000000    0.00000000
     atom   16 type  1   force =     0.00000000    0.00000000    0.00000000
     atom   17 type  1   force =     0.00000000    0.00000000    0.00000000
     atom   18 type  1   force =     0.00000000    0.00000000    0.00000000
     atom   19 type  1   force =     0.00000000    0.00000000    0.00000000
     atom   20 type  1   force =     0.00000000    0.00000000    0.00000000
     atom   21 type  1   force =     0.00000000    0.00000000    0.00000000
     atom   22 type  1   force =     0.00000000    0.00000000    0.00000000
     atom   23 type  1   force =     0.00000000    0.00000000    0.00000000
     atom   24 type  1   force =     0.00000000    0.00000000    0.00000000
     atom   25 type  1   force =     0.00000000    0.00000000    0.00000000
     atom   26 type  1   force =     0.00000000    0.00000000    0.00000000
     atom   27 type  1   force =     0.00000000    0.00000000    0.00000000
     atom   28 type  1   force =     0.00000000    0.00000000    0.00000000
     The SCF correction term to forces
     atom    1 type  1   force =    -0.00000001   -0.00000003   -0.00000008
     atom    2 type  1   force =    -0.00000001    0.00000000    0.00000008
     atom    3 type  1   force =     0.00000003   -0.00000005    0.00000003
     atom    4 type  1   force =     0.00000000   -0.00000001   -0.00000007
     atom    5 type  1   force =     0.00000001    0.00000001   -0.00000007
     atom    6 type  1   force =     0.00000001   -0.00000001   -0.00000011
     atom    7 type  1   force =     0.00000000    0.00000001   -0.00000014
     atom    8 type  1   force =    -0.00000000   -0.00000000   -0.00000012
     atom    9 type  1   force =    -0.00000001    0.00000000   -0.00000012
     atom   10 type  1   force =     0.00000000    0.00000001   -0.00000008
     atom   11 type  1   force =     0.00000001   -0.00000000   -0.00000005
     atom   12 type  1   force =     0.00000001    0.00000001   -0.00000003
     atom   13 type  1   force =    -0.00000000    0.00000000   -0.00000002
     atom   14 type  1   force =     0.00000000    0.00000001   -0.00000000
     atom   15 type  1   force =    -0.00000000   -0.00000004   -0.00000006
     atom   16 type  1   force =    -0.00000000   -0.00000000    0.00000011
     atom   17 type  1   force =     0.00000002   -0.00000005    0.00000002
     atom   18 type  1   force =    -0.00000000   -0.00000000   -0.00000003
     atom   19 type  1   force =     0.00000001    0.00000001   -0.00000008
     atom   20 type  1   force =     0.00000001   -0.00000001   -0.00000010
     atom   21 type  1   force =     0.00000001    0.00000001   -0.00000014
     atom   22 type  1   force =    -0.00000000   -0.00000000   -0.00000012
     atom   23 type  1   force =    -0.00000001    0.00000000   -0.00000012
     atom   24 type  1   force =     0.00000001    0.00000001   -0.00000008
     atom   25 type  1   force =     0.00000001   -0.00000001   -0.00000005
     atom   26 type  1   force =     0.00000000    0.00000001   -0.00000003
     atom   27 type  1   force =    -0.00000000   -0.00000000   -0.00000006
     atom   28 type  1   force =    -0.00000000    0.00000000   -0.00000001

     Total force =     0.001421     Total SCF correction =     0.000000

     Writing all to output data dir ./Li/Lithium.save/ :
     XML data file

     General routines

     Parallel routines

     PAW routines

     Environ routines

   This run was terminated on:   1:33:28   2Jan2025

   JOB DONE.