     Program PWSCF v.7.4 starts on 22Jan2025 at 21:44:13

     Reading input from espresso.pwi
Warning: card &CELL ignored
Warning: card    PRESS_CONV_THR   = 0.1 ignored
Warning: card    CELL_DOFREE      = 'ALL' ignored
Warning: card / ignored
Warning: card &FCP ignored
Warning: card / ignored
Warning: card &RISM ignored
Warning: card / ignored

     Current dimensions of program PWSCF are:
     Max number of different atomic species (ntypx) = 10
     Max number of k-points (npk) =  40000
     Max angular momentum in pseudopotentials (lmaxx) =  4

     IMPORTANT: XC functional enforced from input :
     Exchange-correlation= PBE
                           (   1   4   3   4   0   0   0)
     Any further DFT definition will be discarded
     Please, verify this is what you really want

     Reading input from environ.in:
     * using ionic solvent mode
     * setting boundary derivatives method to SSCS default
     * setting electrolyte-boundary derivatives method to SSCS default

Environ Warning (1001): card EOF ignored

     K-points division:     npool     =       2
     R & G space division:  proc/nbgrp/npool/nimage =     192
     Subspace diagonalization in iterative solution of the eigenvalue problem:
     a serial algorithm will be used

     Using Slab Decomposition

     bravais-lattice index     =            4
     lattice parameter (alat)  =      18.3607  a.u.
     unit-cell volume          =   28251.3786 (a.u.)^3
     number of atoms/cell      =           48
     number of atomic types    =            1
     number of electrons       =       144.00
     number of Kohn-Sham states=          108
     kinetic-energy cutoff     =      80.0000  Ry
     charge density cutoff     =     800.0000  Ry
     scf convergence threshold =      1.0E-12
     mixing beta               =       0.2000
     number of iterations used =            8  local-TF  mixing
     Exchange-correlation= PBE
                           (   1   4   3   4   0   0   0)

                                  Environ Setup Summary

          O. Andreussi, I. Dabo and N. Marzari, J. Chem. Phys. 136, 064102 (2012)
          F. Nattino, M. Truscott, N. Marzari, and O. Andreussi, J. Chem. Phys. 150, 041722 (2019)

     in publications or presentations arising from this work.

     Parameters

     compensation onset threshold      =               0.1000E+00
     static permittivity               =                    89.90
     surface tension in input (dyn/cm) =                    37.30
     surface tension in internal units =               0.4792E-04

     Solvent Boundary

     solvent mode                      =                    ionic
     derivatives method                =                   lowmem
     electrolyte derivatives method    =                   lowmem
     numerical core for derivatives    =                      fft
     switching function adopted        =                     SCCS
     density limit for vacuum region   =               0.5000E-02
     density limit for bulk solvent    =               0.1000E-03
     soft-sphere radius mode           =                    bondi
     soft-sphere softness              =                     0.50
     alpha                             =                     1.32

     Electrostatic Setup

     electrostatic problem to solve    =                    modpb
     numerical solver adopted          =                   newton
     type of auxiliary density adopted =                     none
     numerical core for poisson        =                      fft
     adopting a nested solver scheme
     inner solver                      =                       cg
     inner core                        =                      fft
     type of pbc corrections           =                parabolic
     numerical core for corrections    =                      1da

     >>>>> Grand-Canonical SCF is activated <<<<<
     Initial Total Charge  =     0.000000 e
     Target Fermi Energy   =    -1.404000 eV
     Thr. of Fermi Energy  =     0.001000 eV
     Wave-shift of Kerker  =     0.400000 bohr^-1
     Wave-shift of Hartree =     1.500000 bohr^-1
     Mixing Rate of Fermi  =     0.050000

     celldm(1)=  18.360747  celldm(2)=   0.000000  celldm(3)=   5.270332
     celldm(4)=   0.000000  celldm(5)=   0.000000  celldm(6)=   0.000000

     crystal axes: (cart. coord. in units of alat)
               a(1) = (   1.000000   0.000000   0.000000 )
               a(2) = (  -0.500000   0.866025   0.000000 )
               a(3) = (   0.000000   0.000000   5.270332 )

     reciprocal axes: (cart. coord. in units 2 pi/alat)
               b(1) = (  1.000000  0.577350 -0.000000 )
               b(2) = (  0.000000  1.154701  0.000000 )
               b(3) = (  0.000000 -0.000000  0.189741 )

     PseudoPot. # 1 for Li read from file:
     /work/e89/e89/ba3g18/Repos/Pseudopotentials/Pslibrary/Li.pbe-sl-kjpaw_psl.1.0.0.UPF
     MD5 check sum: 3f4d2cafebb47c6c3aa8ed472e6f074d
     Pseudo is Projector augmented-wave, Zval =  3.0
     Generated using 'atomic' code by A. Dal Corso  v.7.4
     Shape of augmentation charge: PSQ
     Using radial grid of 1017 points,  4 beta functions with:
                l(1) =   0
                l(2) =   0
                l(3) =   1
                l(4) =   1
     Q(r) pseudized with 0 coefficients

     atomic species   valence    mass     pseudopotential
     Li                3.00     6.94000     Li( 1.00)

      4 Sym. Ops., with inversion, found ( 2 have fractional translation)

                                    s                        frac. trans.

      isym =  1     identity

 cryst.   s( 1) = (     1          0          0      )
                  (     0          1          0      )
                  (     0          0          1      )

 cart.    s( 1) = (  1.0000000  0.0000000  0.0000000 )
                  (  0.0000000  1.0000000  0.0000000 )
                  (  0.0000000  0.0000000  1.0000000 )

      isym =  2     180 deg rotation - cart. axis [1,0,0]

 cryst.   s( 2) = (     1          0          0      )    f =(  0.3333335 )
                  (    -1         -1          0      )       ( -0.3333329 )
                  (     0          0         -1      )       ( -0.0000013 )

 cart.    s( 2) = (  1.0000000  0.0000000  0.0000000 )    f =(  0.5000000 )
                  (  0.0000000 -1.0000000  0.0000000 )       ( -0.2886748 )
                  (  0.0000000  0.0000000 -1.0000000 )       ( -0.0000068 )

      isym =  3     inversion

 cryst.   s( 3) = (    -1          0          0      )    f =(  0.3333335 )
                  (     0         -1          0      )       ( -0.3333329 )
                  (     0          0         -1      )       ( -0.0000013 )

 cart.    s( 3) = ( -1.0000000  0.0000000  0.0000000 )    f =(  0.5000000 )
                  (  0.0000000 -1.0000000  0.0000000 )       ( -0.2886748 )
                  (  0.0000000  0.0000000 -1.0000000 )       ( -0.0000068 )

      isym =  4     inv. 180 deg rotation - cart. axis [1,0,0]

 cryst.   s( 4) = (    -1          0          0      )
                  (     1          1          0      )
                  (     0          0          1      )

 cart.    s( 4) = ( -1.0000000  0.0000000  0.0000000 )
                  (  0.0000000  1.0000000  0.0000000 )
                  (  0.0000000  0.0000000  1.0000000 )

     point group C_2h (2/m)
     there are  4 classes
     the character table:

       E     C2    i     s_h
A_g    1.00  1.00  1.00  1.00
B_g    1.00 -1.00  1.00 -1.00
A_u    1.00  1.00 -1.00 -1.00
B_u    1.00 -1.00 -1.00  1.00

     the symmetry operations in each class and the name of the first element:

     E        1
          identity
     C2       2
          180 deg rotation - cart. axis [1,0,0]
     i        3
          inversion
     s_h      4
          inv. 180 deg rotation - cart. axis [1,0,0]

   Cartesian axes

     site n.     atom                  positions (alat units)
         1        Li     tau(   1) = (  -0.0000000   0.0000321   2.5787981  )
         2        Li     tau(   2) = (   0.2499705   0.1443510   2.1865255  )
         3        Li     tau(   3) = (   0.5000000   0.2886674   2.3828447  )
         4        Li     tau(   4) = (   0.0000000   0.0000805   2.2716084  )
         5        Li     tau(   5) = (   0.2499710   0.1443434   2.4828647  )
         6        Li     tau(   6) = (   0.5000000   0.2887386   2.0801452  )
         7        Li     tau(   7) = (   0.0000000  -0.0000658   3.1901842  )
         8        Li     tau(   8) = (   0.2500302   0.1443305   2.7874693  )
         9        Li     tau(   9) = (   0.5000000   0.2885943   2.9987353  )
        10        Li     tau(  10) = (  -0.0000000   0.0000102   2.8874910  )
        11        Li     tau(  11) = (   0.2500318   0.1443241   3.0838034  )
        12        Li     tau(  12) = (   0.5000000   0.2886427   2.6915407  )
        13        Li     tau(  13) = (   0.2499130   0.4330248   2.5789028  )
        14        Li     tau(  14) = (   0.5000000   0.5773904   2.1866134  )
        15        Li     tau(  15) = (   0.7500017   0.7216928   2.3827947  )
        16        Li     tau(  16) = (   0.2498883   0.4330438   2.2716914  )
        17        Li     tau(  17) = (   0.5000000   0.5773671   2.4828781  )
        18        Li     tau(  18) = (   0.7499085   0.7217165   2.0800935  )
        19        Li     tau(  19) = (   0.2500890   0.4329886   3.1902347  )
        20        Li     tau(  20) = (   0.5000000   0.5773328   2.7874530  )
        21        Li     tau(  21) = (   0.7501127   0.7216583   2.9986348  )
        22        Li     tau(  22) = (   0.2499976   0.4330042   2.8875407  )
        23        Li     tau(  23) = (   0.5000000   0.5773119   3.0837114  )
        24        Li     tau(  24) = (   0.7500860   0.7216760   2.6914290  )
        25        Li     tau(  25) = (   0.5000000  -0.0000358   2.5789644  )
        26        Li     tau(  26) = (   0.7500295   0.1443510   2.1865255  )
        27        Li     tau(  27) = (   1.0000000   0.2886944   2.3827691  )
        28        Li     tau(  28) = (   0.5000000  -0.0000712   2.2717463  )
        29        Li     tau(  29) = (   0.7500290   0.1443434   2.4828647  )
        30        Li     tau(  30) = (   1.0000000   0.2886169   2.0800771  )
        31        Li     tau(  31) = (   0.5000000   0.0000499   3.1902486  )
        32        Li     tau(  32) = (   0.7499698   0.1443305   2.7874693  )
        33        Li     tau(  33) = (   1.0000000   0.2887423   2.9985976  )
        34        Li     tau(  34) = (   0.5000000  -0.0000135   2.8875662  )
        35        Li     tau(  35) = (   0.7499682   0.1443241   3.0838035  )
        36        Li     tau(  36) = (   1.0000000   0.2887091   2.6913763  )
        37        Li     tau(  37) = (   0.7500870   0.4330248   2.5789028  )
        38        Li     tau(  38) = (   1.0000000   0.5773404   2.1863596  )
        39        Li     tau(  39) = (   1.2499983   0.7216928   2.3827947  )
        40        Li     tau(  40) = (   0.7501117   0.4330438   2.2716914  )
        41        Li     tau(  41) = (   1.0000000   0.5773558   2.4828149  )
[...]
     atom   27 type  1   force =     0.00000006   -0.00009336   -5.86884927
     atom   28 type  1   force =    -0.00000002    0.00106982   -8.61413470
     atom   29 type  1   force =    -0.00096163    0.00010617   -3.52298744
     atom   30 type  1   force =     0.00000006    0.00030675  -12.37226489
     atom   31 type  1   force =     0.00000000   -0.00032101   12.37230674
     atom   32 type  1   force =     0.00098660   -0.00006130    3.52294829
     atom   33 type  1   force =     0.00000003   -0.00103464    8.61438653
     atom   34 type  1   force =    -0.00000000    0.00007869    5.86888513
     atom   35 type  1   force =     0.00180898   -0.00018496   10.52537600
     atom   36 type  1   force =     0.00000005   -0.00094743    1.29825307
     atom   37 type  1   force =    -0.00162929   -0.00015635   -1.29868227
     atom   38 type  1   force =     0.00000005    0.00085144  -10.52899228
     atom   39 type  1   force =     0.00023797    0.00005420   -5.86843667
     atom   40 type  1   force =    -0.00164683   -0.00020802   -8.61490292
     atom   41 type  1   force =     0.00000004    0.00042983   -3.52457179
     atom   42 type  1   force =    -0.00044036   -0.00002545  -12.37152781
     atom   43 type  1   force =     0.00043659    0.00004676   12.37156303
     atom   44 type  1   force =     0.00000003   -0.00050758    3.52435352
     atom   45 type  1   force =     0.00167644    0.00017489    8.61481023
     atom   46 type  1   force =    -0.00023362   -0.00004263    5.86843863
     atom   47 type  1   force =     0.00000002   -0.00087077   10.52873387
     atom   48 type  1   force =     0.00164820    0.00012040    1.29862382
     The local contribution  to forces
     atom    1 type  1   force =     0.00000031    0.00085677    1.27712727
     atom    2 type  1   force =    -0.00241070   -0.00026704   10.37434002
     atom    3 type  1   force =     0.00000169   -0.00103683    5.75505257
     atom    4 type  1   force =    -0.00000085    0.00088623    8.46337970
     atom    5 type  1   force =    -0.00132110    0.00016321    3.46075766
     atom    6 type  1   force =    -0.00000356    0.00076471   12.29281560
     atom    7 type  1   force =    -0.00000028    0.00035196  -12.28738236
     atom    8 type  1   force =     0.00062884    0.00033442   -3.45794880
     atom    9 type  1   force =     0.00000168   -0.00088618   -8.46628418
     atom   10 type  1   force =     0.00000031   -0.00057890   -5.75325559
     atom   11 type  1   force =     0.00112020    0.00008930  -10.36856764
     atom   12 type  1   force =     0.00000111   -0.00085694   -1.27712728
     atom   13 type  1   force =    -0.00133721   -0.00002596    1.27796212
     atom   14 type  1   force =     0.00000285    0.00055969   10.37343266
     atom   15 type  1   force =     0.00040887    0.00085887    5.75614561
     atom   16 type  1   force =    -0.00189633   -0.00036026    8.46703721
     atom   17 type  1   force =     0.00000169    0.00078754    3.46082754
     atom   18 type  1   force =     0.00028646   -0.00135083   12.29448698
     atom   19 type  1   force =     0.00112934   -0.00141679  -12.28833435
     atom   20 type  1   force =     0.00000227   -0.00063274   -3.45632502
     atom   21 type  1   force =     0.00132712   -0.00072663   -8.45966231
     atom   22 type  1   force =    -0.00003399    0.00095108   -5.75418650
     atom   23 type  1   force =     0.00000227   -0.00174355  -10.36523824
     atom   24 type  1   force =     0.00189954   -0.00029850   -1.27388064
     atom   25 type  1   force =     0.00000227   -0.00053288    1.27489196
     atom   26 type  1   force =     0.00241408   -0.00026588   10.37433095
     atom   27 type  1   force =     0.00000365   -0.00165586    5.75664321
     atom   28 type  1   force =     0.00000284    0.00002672    8.46124757
     atom   29 type  1   force =     0.00132447    0.00016321    3.46075283
     atom   30 type  1   force =     0.00000834    0.00194550   12.29596676
     atom   31 type  1   force =     0.00000228    0.00255991  -12.28837550
     atom   32 type  1   force =    -0.00062547    0.00033442   -3.45795182
     atom   33 type  1   force =     0.00000306    0.00205601   -8.46423715
     atom   34 type  1   force =     0.00000227   -0.00180362   -5.75456826
     atom   35 type  1   force =    -0.00111682    0.00008989  -10.36857006
     atom   36 type  1   force =     0.00000365    0.00137794   -1.27606862
     atom   37 type  1   force =     0.00134116   -0.00002654    1.27796212
     atom   38 type  1   force =     0.00000249   -0.00096850   10.38175262
     atom   39 type  1   force =    -0.00040215    0.00085829    5.75614500
     atom   40 type  1   force =     0.00190028   -0.00036142    8.46703660
     atom   41 type  1   force =     0.00000307   -0.00178694    3.46467130
     atom   42 type  1   force =    -0.00027971   -0.00135725   12.29448638
     atom   43 type  1   force =    -0.00112537   -0.00141737  -12.28833376
     atom   44 type  1   force =     0.00000307   -0.00084448   -3.45695706
     atom   45 type  1   force =    -0.00132042   -0.00072663   -8.45966231
     atom   46 type  1   force =     0.00003737    0.00095108   -5.75418590
     atom   47 type  1   force =     0.00000307    0.00071544  -10.36818339
     atom   48 type  1   force =    -0.00189340   -0.00029908   -1.27388064
     The core correction contribution to forces
     atom    1 type  1   force =     0.00000000    0.00000000    0.00000000
     atom    2 type  1   force =     0.00000000    0.00000000    0.00000000
     atom    3 type  1   force =     0.00000000    0.00000000    0.00000000
     atom    4 type  1   force =     0.00000000    0.00000000    0.00000000
     atom    5 type  1   force =     0.00000000    0.00000000    0.00000000
     atom    6 type  1   force =     0.00000000    0.00000000    0.00000000
     atom    7 type  1   force =     0.00000000    0.00000000    0.00000000
     atom    8 type  1   force =     0.00000000    0.00000000    0.00000000
     atom    9 type  1   force =     0.00000000    0.00000000    0.00000000
     atom   10 type  1   force =     0.00000000    0.00000000    0.00000000
     atom   11 type  1   force =     0.00000000    0.00000000    0.00000000
     atom   12 type  1   force =     0.00000000    0.00000000    0.00000000
     atom   13 type  1   force =     0.00000000    0.00000000    0.00000000
     atom   14 type  1   force =     0.00000000    0.00000000    0.00000000
     atom   15 type  1   force =     0.00000000    0.00000000    0.00000000
     atom   16 type  1   force =     0.00000000    0.00000000    0.00000000
     atom   17 type  1   force =     0.00000000    0.00000000    0.00000000
     atom   18 type  1   force =     0.00000000    0.00000000    0.00000000
     atom   19 type  1   force =     0.00000000    0.00000000    0.00000000
     atom   20 type  1   force =     0.00000000    0.00000000    0.00000000
     atom   21 type  1   force =     0.00000000    0.00000000    0.00000000
     atom   22 type  1   force =     0.00000000    0.00000000    0.00000000
     atom   23 type  1   force =     0.00000000    0.00000000    0.00000000
     atom   24 type  1   force =     0.00000000    0.00000000    0.00000000
     atom   25 type  1   force =     0.00000000    0.00000000    0.00000000
     atom   26 type  1   force =     0.00000000    0.00000000    0.00000000
     atom   27 type  1   force =     0.00000000    0.00000000    0.00000000
     atom   28 type  1   force =     0.00000000    0.00000000    0.00000000
     atom   29 type  1   force =     0.00000000    0.00000000    0.00000000
     atom   30 type  1   force =     0.00000000    0.00000000    0.00000000
     atom   31 type  1   force =     0.00000000    0.00000000    0.00000000
     atom   32 type  1   force =     0.00000000    0.00000000    0.00000000
     atom   33 type  1   force =     0.00000000    0.00000000    0.00000000
     atom   34 type  1   force =     0.00000000    0.00000000    0.00000000
     atom   35 type  1   force =     0.00000000    0.00000000    0.00000000
     atom   36 type  1   force =     0.00000000    0.00000000    0.00000000
     atom   37 type  1   force =     0.00000000    0.00000000    0.00000000
     atom   38 type  1   force =     0.00000000    0.00000000    0.00000000
     atom   39 type  1   force =     0.00000000    0.00000000    0.00000000
     atom   40 type  1   force =     0.00000000    0.00000000    0.00000000
     atom   41 type  1   force =     0.00000000    0.00000000    0.00000000
     atom   42 type  1   force =     0.00000000    0.00000000    0.00000000
     atom   43 type  1   force =     0.00000000    0.00000000    0.00000000
     atom   44 type  1   force =     0.00000000    0.00000000    0.00000000
     atom   45 type  1   force =     0.00000000    0.00000000    0.00000000
     atom   46 type  1   force =     0.00000000    0.00000000    0.00000000
     atom   47 type  1   force =     0.00000000    0.00000000    0.00000000
     atom   48 type  1   force =     0.00000000    0.00000000    0.00000000
     The Hubbard contrib.    to forces
     atom    1 type  1   force =     0.00000000    0.00000000    0.00000000
     atom    2 type  1   force =     0.00000000    0.00000000    0.00000000
     atom    3 type  1   force =     0.00000000    0.00000000    0.00000000
     atom    4 type  1   force =     0.00000000    0.00000000    0.00000000
     atom    5 type  1   force =     0.00000000    0.00000000    0.00000000
     atom    6 type  1   force =     0.00000000    0.00000000    0.00000000
     atom    7 type  1   force =     0.00000000    0.00000000    0.00000000
     atom    8 type  1   force =     0.00000000    0.00000000    0.00000000
     atom    9 type  1   force =     0.00000000    0.00000000    0.00000000
     atom   10 type  1   force =     0.00000000    0.00000000    0.00000000
     atom   11 type  1   force =     0.00000000    0.00000000    0.00000000
     atom   12 type  1   force =     0.00000000    0.00000000    0.00000000
     atom   13 type  1   force =     0.00000000    0.00000000    0.00000000
     atom   14 type  1   force =     0.00000000    0.00000000    0.00000000
     atom   15 type  1   force =     0.00000000    0.00000000    0.00000000
     atom   16 type  1   force =     0.00000000    0.00000000    0.00000000
     atom   17 type  1   force =     0.00000000    0.00000000    0.00000000
     atom   18 type  1   force =     0.00000000    0.00000000    0.00000000
     atom   19 type  1   force =     0.00000000    0.00000000    0.00000000
     atom   20 type  1   force =     0.00000000    0.00000000    0.00000000
     atom   21 type  1   force =     0.00000000    0.00000000    0.00000000
     atom   22 type  1   force =     0.00000000    0.00000000    0.00000000
     atom   23 type  1   force =     0.00000000    0.00000000    0.00000000
     atom   24 type  1   force =     0.00000000    0.00000000    0.00000000
     atom   25 type  1   force =     0.00000000    0.00000000    0.00000000
     atom   26 type  1   force =     0.00000000    0.00000000    0.00000000
     atom   27 type  1   force =     0.00000000    0.00000000    0.00000000
     atom   28 type  1   force =     0.00000000    0.00000000    0.00000000
     atom   29 type  1   force =     0.00000000    0.00000000    0.00000000
     atom   30 type  1   force =     0.00000000    0.00000000    0.00000000
     atom   31 type  1   force =     0.00000000    0.00000000    0.00000000
     atom   32 type  1   force =     0.00000000    0.00000000    0.00000000
     atom   33 type  1   force =     0.00000000    0.00000000    0.00000000
     atom   34 type  1   force =     0.00000000    0.00000000    0.00000000
     atom   35 type  1   force =     0.00000000    0.00000000    0.00000000
     atom   36 type  1   force =     0.00000000    0.00000000    0.00000000
     atom   37 type  1   force =     0.00000000    0.00000000    0.00000000
     atom   38 type  1   force =     0.00000000    0.00000000    0.00000000
     atom   39 type  1   force =     0.00000000    0.00000000    0.00000000
     atom   40 type  1   force =     0.00000000    0.00000000    0.00000000
     atom   41 type  1   force =     0.00000000    0.00000000    0.00000000
     atom   42 type  1   force =     0.00000000    0.00000000    0.00000000
     atom   43 type  1   force =     0.00000000    0.00000000    0.00000000
     atom   44 type  1   force =     0.00000000    0.00000000    0.00000000
     atom   45 type  1   force =     0.00000000    0.00000000    0.00000000
     atom   46 type  1   force =     0.00000000    0.00000000    0.00000000
     atom   47 type  1   force =     0.00000000    0.00000000    0.00000000
     atom   48 type  1   force =     0.00000000    0.00000000    0.00000000
     The SCF correction term to forces
     atom    1 type  1   force =    -0.00000000   -0.00000007    0.00000004
     atom    2 type  1   force =    -0.00000000   -0.00000001   -0.00000006
     atom    3 type  1   force =     0.00000000    0.00000006   -0.00000006
     atom    4 type  1   force =    -0.00000000   -0.00000004   -0.00000007
     atom    5 type  1   force =    -0.00000000   -0.00000001   -0.00000014
     atom    6 type  1   force =    -0.00000000    0.00000001    0.00000030
     atom    7 type  1   force =     0.00000000   -0.00000002   -0.00000033
     atom    8 type  1   force =     0.00000001    0.00000000    0.00000013
     atom    9 type  1   force =     0.00000000    0.00000004    0.00000009
     atom   10 type  1   force =    -0.00000000   -0.00000005    0.00000005
     atom   11 type  1   force =     0.00000001    0.00000001    0.00000002
     atom   12 type  1   force =    -0.00000000    0.00000007   -0.00000004
     atom   13 type  1   force =     0.00000010    0.00000001    0.00000004
     atom   14 type  1   force =    -0.00000000    0.00000002   -0.00000002
     atom   15 type  1   force =    -0.00000009   -0.00000001   -0.00000007
     atom   16 type  1   force =     0.00000006    0.00000001   -0.00000013
     atom   17 type  1   force =    -0.00000000    0.00000001   -0.00000012
     atom   18 type  1   force =    -0.00000003    0.00000001    0.00000031
     atom   19 type  1   force =     0.00000003    0.00000000   -0.00000034
     atom   20 type  1   force =    -0.00000000   -0.00000001    0.00000010
     atom   21 type  1   force =    -0.00000006   -0.00000001    0.00000009
     atom   22 type  1   force =     0.00000009   -0.00000000    0.00000006
     atom   23 type  1   force =     0.00000000   -0.00000001   -0.00000002
     atom   24 type  1   force =    -0.00000010   -0.00000001   -0.00000006
     atom   25 type  1   force =    -0.00000000    0.00000004    0.00000004
     atom   26 type  1   force =     0.00000000   -0.00000001   -0.00000005
     atom   27 type  1   force =    -0.00000000   -0.00000003   -0.00000008
     atom   28 type  1   force =     0.00000000    0.00000002   -0.00000012
     atom   29 type  1   force =     0.00000000   -0.00000001   -0.00000014
     atom   30 type  1   force =     0.00000000   -0.00000003    0.00000028
     atom   31 type  1   force =    -0.00000000    0.00000000   -0.00000033
     atom   32 type  1   force =    -0.00000001    0.00000000    0.00000013
     atom   33 type  1   force =    -0.00000000   -0.00000003    0.00000014
     atom   34 type  1   force =     0.00000000    0.00000006    0.00000007
     atom   35 type  1   force =    -0.00000001    0.00000001    0.00000002
     atom   36 type  1   force =     0.00000000   -0.00000005   -0.00000003
     atom   37 type  1   force =    -0.00000010    0.00000001    0.00000003
     atom   38 type  1   force =     0.00000000    0.00000001   -0.00000010
     atom   39 type  1   force =     0.00000009   -0.00000001   -0.00000007
     atom   40 type  1   force =    -0.00000006    0.00000001   -0.00000013
     atom   41 type  1   force =    -0.00000000    0.00000001   -0.00000017
     atom   42 type  1   force =     0.00000003    0.00000001    0.00000031
     atom   43 type  1   force =    -0.00000003    0.00000000   -0.00000034
     atom   44 type  1   force =     0.00000000    0.00000000    0.00000012
     atom   45 type  1   force =     0.00000006   -0.00000001    0.00000009
     atom   46 type  1   force =    -0.00000009   -0.00000000    0.00000007
     atom   47 type  1   force =    -0.00000000   -0.00000001    0.00000003
     atom   48 type  1   force =     0.00000010   -0.00000001   -0.00000006

     Total force =     0.004412     Total SCF correction =     0.000001

     Writing all to output data dir ./Li/Lithium.save/ :
     XML data file

     General routines

     Parallel routines

     PAW routines

     Environ routines

   This run was terminated on:  22:27:51  22Jan2025

   JOB DONE.