     Program PWSCF v.7.4 starts on 21Jan2025 at 10:53:49

     Reading input from espresso.pwi
Warning: card &CELL ignored
Warning: card    PRESS_CONV_THR   = 0.1 ignored
Warning: card    CELL_DOFREE      = 'ALL' ignored
Warning: card / ignored
Warning: card &FCP ignored
Warning: card / ignored
Warning: card &RISM ignored
Warning: card / ignored

     Current dimensions of program PWSCF are:
     Max number of different atomic species (ntypx) = 10
     Max number of k-points (npk) =  40000
     Max angular momentum in pseudopotentials (lmaxx) =  4

     IMPORTANT: XC functional enforced from input :
     Exchange-correlation= PBE
                           (   1   4   3   4   0   0   0)
     Any further DFT definition will be discarded
     Please, verify this is what you really want

     Reading input from environ.in:
     * using ionic solvent mode
     * setting boundary derivatives method to SSCS default
     * setting electrolyte-boundary derivatives method to SSCS default

Environ Warning (1001): card EOF ignored

     K-points division:     npool     =       2
     R & G space division:  proc/nbgrp/npool/nimage =     192
     Subspace diagonalization in iterative solution of the eigenvalue problem:
     a serial algorithm will be used

     Using Slab Decomposition

     bravais-lattice index     =           12
     lattice parameter (alat)  =      18.3607  a.u.
     unit-cell volume          =   23801.8584 (a.u.)^3
     number of atoms/cell      =           36
     number of atomic types    =            1
     number of electrons       =       108.00
     number of Kohn-Sham states=           81
     kinetic-energy cutoff     =      80.0000  Ry
     charge density cutoff     =     800.0000  Ry
     scf convergence threshold =      1.0E-16
     mixing beta               =       0.2000
     number of iterations used =            8  local-TF  mixing
     Exchange-correlation= PBE
                           (   1   4   3   4   0   0   0)

                                  Environ Setup Summary

          O. Andreussi, I. Dabo and N. Marzari, J. Chem. Phys. 136, 064102 (2012)
          F. Nattino, M. Truscott, N. Marzari, and O. Andreussi, J. Chem. Phys. 150, 041722 (2019)

     in publications or presentations arising from this work.

     Parameters

     compensation onset threshold      =               0.1000E+00
     static permittivity               =                    89.90
     surface tension in input (dyn/cm) =                    37.30
     surface tension in internal units =               0.4792E-04

     Solvent Boundary

     solvent mode                      =                    ionic
     derivatives method                =                   lowmem
     electrolyte derivatives method    =                   lowmem
     numerical core for derivatives    =                      fft
     switching function adopted        =                     SCCS
     density limit for vacuum region   =               0.5000E-02
     density limit for bulk solvent    =               0.1000E-03
     soft-sphere radius mode           =                    bondi
     soft-sphere softness              =                     0.50
     alpha                             =                     1.32

     Electrostatic Setup

     electrostatic problem to solve    =                    modpb
     numerical solver adopted          =                   newton
     type of auxiliary density adopted =                     none
     numerical core for poisson        =                      fft
     adopting a nested solver scheme
     inner solver                      =                       cg
     inner core                        =                      fft
     type of pbc corrections           =                parabolic
     numerical core for corrections    =                      1da

     >>>>> Grand-Canonical SCF is activated <<<<<
     Initial Total Charge  =     0.000000 e
     Target Fermi Energy   =    -5.404000 eV
     Thr. of Fermi Energy  =     0.001000 eV
     Wave-shift of Kerker  =     0.400000 bohr^-1
     Wave-shift of Hartree =     1.500000 bohr^-1
     Mixing Rate of Fermi  =     0.050000

     celldm(1)=  18.360747  celldm(2)=   0.790569  celldm(3)=   5.127180
     celldm(4)=   0.316228  celldm(5)=   0.000000  celldm(6)=   0.000000

     crystal axes: (cart. coord. in units of alat)
               a(1) = (   1.000000   0.000000   0.000000 )
               a(2) = (   0.250000   0.750000   0.000000 )
               a(3) = (   0.000000   0.000000   5.127180 )

     reciprocal axes: (cart. coord. in units 2 pi/alat)
               b(1) = (  1.000000 -0.333333  0.000000 )
               b(2) = (  0.000000  1.333333  0.000000 )
               b(3) = (  0.000000  0.000000  0.195039 )

     PseudoPot. # 1 for Li read from file:
     /work/e89/e89/ba3g18/Repos/Pseudopotentials/Pslibrary/Li.pbe-sl-kjpaw_psl.1.0.0.UPF
     MD5 check sum: 3f4d2cafebb47c6c3aa8ed472e6f074d
     Pseudo is Projector augmented-wave, Zval =  3.0
     Generated using 'atomic' code by A. Dal Corso  v.7.4
     Shape of augmentation charge: PSQ
     Using radial grid of 1017 points,  4 beta functions with:
                l(1) =   0
                l(2) =   0
                l(3) =   1
                l(4) =   1
     Q(r) pseudized with 0 coefficients

     atomic species   valence    mass     pseudopotential
     Li                3.00     6.94000     Li( 1.00)

     No symmetry found

                                    s                        frac. trans.

      isym =  1     identity

 cryst.   s( 1) = (     1          0          0      )
                  (     0          1          0      )
                  (     0          0          1      )

 cart.    s( 1) = (  1.0000000  0.0000000  0.0000000 )
                  (  0.0000000  1.0000000  0.0000000 )
                  (  0.0000000  0.0000000  1.0000000 )

     point group C_1 (1)
     there are  1 classes
     the character table:

       E
A      1.00

     the symmetry operations in each class and the name of the first element:

     E        1
          identity

   Cartesian axes

     site n.     atom                  positions (alat units)
         1        Li     tau(   1) = (   0.0001026  -0.1219145   3.1281664  )
         2        Li     tau(   2) = (   0.2499674   0.4066104   2.0761582  )
         3        Li     tau(   3) = (   0.2499207   0.0690081   2.2984762  )
         4        Li     tau(   4) = (   0.4999450   0.5034423   2.3202513  )
         5        Li     tau(   5) = (   0.4999916   0.1574167   2.4912468  )
         6        Li     tau(   6) = (   0.2500501   0.5977497   2.5535881  )
         7        Li     tau(   7) = (   0.2500288   0.2430609   2.7236906  )
         8        Li     tau(   8) = (   0.5000692   0.6731568   2.8622611  )
         9        Li     tau(   9) = (   0.5000779   0.3673477   2.9413879  )
        10        Li     tau(  10) = (   0.2499307   0.6601772   2.2649155  )
        11        Li     tau(  11) = (   0.2499723   0.3402736   2.4034759  )
        12        Li     tau(  12) = (   0.4999496   0.7355777   2.5735883  )
        13        Li     tau(  13) = (   0.5000082   0.4259156   2.6359306  )
        14        Li     tau(  14) = (   0.5000555   0.0798927   2.8069266  )
        15        Li     tau(  15) = (   0.2500812   0.5143242   2.8287030  )
        16        Li     tau(  16) = (   0.2500408   0.1767196   3.0510130  )
        17        Li     tau(  17) = (   0.4999277   0.7052504   1.9990168  )
        18        Li     tau(  18) = (   0.4999244   0.2159862   2.1857896  )
        19        Li     tau(  19) = (   0.5000700  -0.1219193   3.1281670  )
        20        Li     tau(  20) = (   0.7499597   0.4066128   2.0761687  )
        21        Li     tau(  21) = (   0.7499188   0.0690094   2.2984776  )
        22        Li     tau(  22) = (   0.9999405   0.5034444   2.3202551  )
        23        Li     tau(  23) = (   0.9999940   0.1574172   2.4912441  )
        24        Li     tau(  24) = (   0.7500506   0.5977524   2.5535885  )
        25        Li     tau(  25) = (   0.7500278   0.2430607   2.7237011  )
        26        Li     tau(  26) = (   1.0000697   0.6731584   2.8622644  )
        27        Li     tau(  27) = (   1.0000698   0.3673413   2.9413897  )
        28        Li     tau(  28) = (   0.7499304   0.6601788   2.2649175  )
        29        Li     tau(  29) = (   0.7499710   0.3402733   2.4034854  )
        30        Li     tau(  30) = (   0.9999499   0.7355821   2.5735929  )
        31        Li     tau(  31) = (   1.0000062   0.4259149   2.6359345  )
        32        Li     tau(  32) = (   1.0000590   0.0798906   2.8069233  )
        33        Li     tau(  33) = (   0.7500793   0.5143306   2.8287026  )
        34        Li     tau(  34) = (   0.7500321   0.1767194   3.0510269  )
        35        Li     tau(  35) = (   0.9998997   0.7052466   1.9990189  )
        36        Li     tau(  36) = (   0.9999279   0.2159916   2.1857882  )

   Crystallographic axes

     site n.     atom                  positions (cryst. coord.)
         1        Li     tau(   1) = (  0.0407408 -0.1625527  0.6101144  )
         2        Li     tau(   2) = (  0.1144306  0.5421472  0.4049318  )
         3        Li     tau(   3) = (  0.2269180  0.0920108  0.4482925  )
         4        Li     tau(   4) = (  0.3321309  0.6712564  0.4525395  )
         5        Li     tau(   5) = (  0.4475194  0.2098889  0.4858903  )
         6        Li     tau(   6) = (  0.0508002  0.7969997  0.4980492  )
         7        Li     tau(   7) = (  0.1690085  0.3240812  0.5312259  )
         8        Li     tau(   8) = (  0.2756836  0.8975424  0.5582525  )
         9        Li     tau(   9) = (  0.3776286  0.4897969  0.5736853  )
        10        Li     tau(  10) = (  0.0298717  0.8802362  0.4417468  )
        11        Li     tau(  11) = (  0.1365478  0.4536981  0.4687715  )
        12        Li     tau(  12) = (  0.2547570  0.9807703  0.5019501  )
        13        Li     tau(  13) = (  0.3580364  0.5678875  0.5141092  )
        14        Li     tau(  14) = (  0.4734246  0.1065236  0.5474601  )
        15        Li     tau(  15) = (  0.0786398  0.6857656  0.5517074  )
        16        Li     tau(  16) = (  0.1911343  0.2356261  0.5950665  )
        17        Li     tau(  17) = (  0.2648443  0.9403339  0.3898862  )
        18        Li     tau(  18) = (  0.4279290  0.2879816  0.4263142  )
        19        Li     tau(  19) = (  0.5407097 -0.1625591  0.6101145  )
        20        Li     tau(  20) = (  0.6144221  0.5421505  0.4049338  )
        21        Li     tau(  21) = (  0.7269156  0.0920126  0.4482928  )
        22        Li     tau(  22) = (  0.8321257  0.6712592  0.4525402  )
        23        Li     tau(  23) = (  0.9475216  0.2098896  0.4858897  )
        24        Li     tau(  24) = (  0.5507998  0.7970032  0.4980493  )
        25        Li     tau(  25) = (  0.6690076  0.3240809  0.5312279  )
        26        Li     tau(  26) = (  0.7756836  0.8975445  0.5582532  )
        27        Li     tau(  27) = (  0.8776227  0.4897883  0.5736857  )
        28        Li     tau(  28) = (  0.5298708  0.8802384  0.4417472  )
[...]
     atom    3 type  1   force =     0.00001977    0.01130086    0.00175713
     atom    4 type  1   force =     0.00003897   -0.01087148   -0.01061830
     atom    5 type  1   force =    -0.00007096    0.01295901    0.01131263
     atom    6 type  1   force =    -0.00005881    0.00477291    0.00310492
     atom    7 type  1   force =    -0.00000965    0.00414283   -0.00651333
     atom    8 type  1   force =     0.00005534    0.00093616    0.02390964
     atom    9 type  1   force =     0.00000637   -0.00772014    0.07375596
     atom   10 type  1   force =    -0.00005634   -0.00093190   -0.02393120
     atom   11 type  1   force =     0.00000893   -0.00414185    0.00651595
     atom   12 type  1   force =     0.00005730   -0.00477155   -0.00310830
     atom   13 type  1   force =     0.00007112   -0.01295915   -0.01131189
     atom   14 type  1   force =    -0.00003959    0.01087094    0.01061885
     atom   15 type  1   force =    -0.00002510   -0.01130303   -0.00175353
     atom   16 type  1   force =     0.00003270    0.00399742    0.07138694
     atom   17 type  1   force =    -0.00000373    0.00068199   -0.04387248
     atom   18 type  1   force =    -0.00000650    0.00771965   -0.07375694
     atom   19 type  1   force =     0.00000409   -0.00068220    0.04387109
     atom   20 type  1   force =    -0.00003259   -0.00399672   -0.07138885
     atom   21 type  1   force =     0.00002491    0.01130290    0.00175644
     atom   22 type  1   force =     0.00004070   -0.01087249   -0.01061926
     atom   23 type  1   force =    -0.00007189    0.01295848    0.01131201
     atom   24 type  1   force =    -0.00005725    0.00477219    0.00310888
     atom   25 type  1   force =    -0.00000911    0.00414167   -0.00651460
     atom   26 type  1   force =     0.00005672    0.00093075    0.02393220
     atom   27 type  1   force =     0.00001162   -0.00771381    0.07376104
     atom   28 type  1   force =    -0.00005579   -0.00093569   -0.02391145
     atom   29 type  1   force =     0.00000983   -0.00414376    0.00651511
     atom   30 type  1   force =     0.00005874   -0.00477257   -0.00310507
     atom   31 type  1   force =     0.00007171   -0.01295819   -0.01131232
     atom   32 type  1   force =    -0.00004001    0.01087151    0.01062047
     atom   33 type  1   force =    -0.00001954   -0.01130093   -0.00175652
     atom   34 type  1   force =     0.00003433    0.00398920    0.07138374
     atom   35 type  1   force =     0.00000484    0.00068234   -0.04387221
     atom   36 type  1   force =    -0.00001148    0.00771456   -0.07376138
     The ionic contribution  to forces
     atom    1 type  1   force =    -0.00014224   -0.03214004   10.95521428
     atom    2 type  1   force =    -0.00016946   -0.09463092  -10.30779612
     atom    3 type  1   force =     0.00017175    0.11767510   -6.28611338
     atom    4 type  1   force =     0.00021638   -0.16618077   -5.75207878
     atom    5 type  1   force =    -0.00034485    0.17741119   -1.62907901
     atom    6 type  1   force =    -0.00087176   -0.09243260   -0.25759489
     atom    7 type  1   force =     0.00007164    0.02424151    3.72824585
     atom    8 type  1   force =     0.00017206    0.04513410    7.07658383
     atom    9 type  1   force =    -0.00009636   -0.11204799    8.73417452
     atom   10 type  1   force =    -0.00023128   -0.04510219   -7.07671402
     atom   11 type  1   force =    -0.00012932   -0.02419341   -3.72849710
     atom   12 type  1   force =     0.00080462    0.09245235    0.25754980
     atom   13 type  1   force =     0.00034633   -0.17741377    1.62907915
     atom   14 type  1   force =    -0.00022650    0.16618609    5.75206300
     atom   15 type  1   force =    -0.00031161   -0.11768254    6.28615222
     atom   16 type  1   force =     0.00010351    0.09475435   10.30767278
     atom   17 type  1   force =    -0.00002190    0.03213251  -10.95525345
     atom   18 type  1   force =     0.00009205    0.11204318   -8.73421960
     atom   19 type  1   force =     0.00002683   -0.03214012   10.95524089
     atom   20 type  1   force =    -0.00010409   -0.09473576  -10.30768850
     atom   21 type  1   force =     0.00031042    0.11767769   -6.28608721
     atom   22 type  1   force =     0.00030784   -0.16619282   -5.75199679
     atom   23 type  1   force =    -0.00037794    0.17739908   -1.62916001
     atom   24 type  1   force =    -0.00080030   -0.09244071   -0.25756615
     atom   25 type  1   force =     0.00012571    0.02420705    3.72848861
     atom   26 type  1   force =     0.00023853    0.04508905    7.07674454
     atom   27 type  1   force =    -0.00003870   -0.11197372    8.73423830
     atom   28 type  1   force =    -0.00018050   -0.04513055   -7.07659936
     atom   29 type  1   force =    -0.00006833   -0.02425457   -3.72828156
     atom   30 type  1   force =     0.00086727    0.09243579    0.25765888
     atom   31 type  1   force =     0.00037642   -0.17739537    1.62917766
     atom   32 type  1   force =    -0.00029673    0.16618601    5.75200025
     atom   33 type  1   force =    -0.00016972   -0.11769434    6.28611842
     atom   34 type  1   force =     0.00016974    0.09464827   10.30781809
     atom   35 type  1   force =     0.00013748    0.03212968  -10.95522782
     atom   36 type  1   force =     0.00004301    0.11197914   -8.73426733
     The local contribution  to forces
     atom    1 type  1   force =     0.00015861    0.03506375  -10.91569194
     atom    2 type  1   force =     0.00021100    0.10353330   10.39736180
     atom    3 type  1   force =    -0.00019111   -0.13281440    6.35642215
     atom    4 type  1   force =    -0.00025951    0.18077956    5.83042836
     atom    5 type  1   force =     0.00040614   -0.19090504    1.63686375
     atom    6 type  1   force =     0.00089414    0.08793397    0.25705140
     atom    7 type  1   force =    -0.00006416   -0.02954182   -3.76469339
     atom    8 type  1   force =    -0.00023757   -0.04188263   -7.18045944
     atom    9 type  1   force =     0.00009326    0.11906497   -8.90070445
     atom   10 type  1   force =     0.00030040    0.04184206    7.18061941
     atom   11 type  1   force =     0.00012541    0.02949102    3.76494003
     atom   12 type  1   force =    -0.00082396   -0.08795480   -0.25700753
     atom   13 type  1   force =    -0.00040765    0.19090786   -1.63686952
     atom   14 type  1   force =     0.00026983   -0.18078442   -5.83041830
     atom   15 type  1   force =     0.00034664    0.13282398   -6.35647297
     atom   16 type  1   force =    -0.00013903   -0.10367790  -10.39725470
     atom   17 type  1   force =     0.00002854   -0.03505498   10.91573654
     atom   18 type  1   force =    -0.00008818   -0.11905918    8.90074434
     atom   19 type  1   force =    -0.00003437    0.03506320  -10.91572272
     atom   20 type  1   force =     0.00013970    0.10365780   10.39726828
     atom   21 type  1   force =    -0.00034468   -0.13281889    6.35639903
     atom   22 type  1   force =    -0.00035709    0.18079333    5.83034808
     atom   23 type  1   force =     0.00044084   -0.19089208    1.63694778
     atom   24 type  1   force =     0.00081993    0.08794354    0.25701850
     atom   25 type  1   force =    -0.00012175   -0.02950358   -3.76493728
     atom   26 type  1   force =    -0.00030796   -0.04182779   -7.18065656
     atom   27 type  1   force =     0.00002500    0.11897585   -8.90077692
     atom   28 type  1   force =     0.00024633    0.04187815    7.18047218
     atom   29 type  1   force =     0.00006081    0.02955501    3.76472256
     atom   30 type  1   force =    -0.00088994   -0.08793726   -0.25712208
     atom   31 type  1   force =    -0.00043926    0.19088845   -1.63697095
     atom   32 type  1   force =     0.00034574   -0.18078607   -5.83035825
     atom   33 type  1   force =     0.00018832    0.13283253   -6.35643355
     atom   34 type  1   force =    -0.00021135   -0.10355103  -10.39738171
     atom   35 type  1   force =    -0.00015296   -0.03505265   10.91571105
     atom   36 type  1   force =    -0.00003008   -0.11898252    8.90079989
     The core correction contribution to forces
     atom    1 type  1   force =     0.00000000    0.00000000    0.00000000
     atom    2 type  1   force =     0.00000000    0.00000000    0.00000000
     atom    3 type  1   force =     0.00000000    0.00000000    0.00000000
     atom    4 type  1   force =     0.00000000    0.00000000    0.00000000
     atom    5 type  1   force =     0.00000000    0.00000000    0.00000000
     atom    6 type  1   force =     0.00000000    0.00000000    0.00000000
     atom    7 type  1   force =     0.00000000    0.00000000    0.00000000
     atom    8 type  1   force =     0.00000000    0.00000000    0.00000000
     atom    9 type  1   force =     0.00000000    0.00000000    0.00000000
     atom   10 type  1   force =     0.00000000    0.00000000    0.00000000
     atom   11 type  1   force =     0.00000000    0.00000000    0.00000000
     atom   12 type  1   force =     0.00000000    0.00000000    0.00000000
     atom   13 type  1   force =     0.00000000    0.00000000    0.00000000
     atom   14 type  1   force =     0.00000000    0.00000000    0.00000000
     atom   15 type  1   force =     0.00000000    0.00000000    0.00000000
     atom   16 type  1   force =     0.00000000    0.00000000    0.00000000
     atom   17 type  1   force =     0.00000000    0.00000000    0.00000000
     atom   18 type  1   force =     0.00000000    0.00000000    0.00000000
     atom   19 type  1   force =     0.00000000    0.00000000    0.00000000
     atom   20 type  1   force =     0.00000000    0.00000000    0.00000000
     atom   21 type  1   force =     0.00000000    0.00000000    0.00000000
     atom   22 type  1   force =     0.00000000    0.00000000    0.00000000
     atom   23 type  1   force =     0.00000000    0.00000000    0.00000000
     atom   24 type  1   force =     0.00000000    0.00000000    0.00000000
     atom   25 type  1   force =     0.00000000    0.00000000    0.00000000
     atom   26 type  1   force =     0.00000000    0.00000000    0.00000000
     atom   27 type  1   force =     0.00000000    0.00000000    0.00000000
     atom   28 type  1   force =     0.00000000    0.00000000    0.00000000
     atom   29 type  1   force =     0.00000000    0.00000000    0.00000000
     atom   30 type  1   force =     0.00000000    0.00000000    0.00000000
     atom   31 type  1   force =     0.00000000    0.00000000    0.00000000
     atom   32 type  1   force =     0.00000000    0.00000000    0.00000000
     atom   33 type  1   force =     0.00000000    0.00000000    0.00000000
     atom   34 type  1   force =     0.00000000    0.00000000    0.00000000
     atom   35 type  1   force =     0.00000000    0.00000000    0.00000000
     atom   36 type  1   force =     0.00000000    0.00000000    0.00000000
     The Hubbard contrib.    to forces
     atom    1 type  1   force =     0.00000000    0.00000000    0.00000000
     atom    2 type  1   force =     0.00000000    0.00000000    0.00000000
     atom    3 type  1   force =     0.00000000    0.00000000    0.00000000
     atom    4 type  1   force =     0.00000000    0.00000000    0.00000000
     atom    5 type  1   force =     0.00000000    0.00000000    0.00000000
     atom    6 type  1   force =     0.00000000    0.00000000    0.00000000
     atom    7 type  1   force =     0.00000000    0.00000000    0.00000000
     atom    8 type  1   force =     0.00000000    0.00000000    0.00000000
     atom    9 type  1   force =     0.00000000    0.00000000    0.00000000
     atom   10 type  1   force =     0.00000000    0.00000000    0.00000000
     atom   11 type  1   force =     0.00000000    0.00000000    0.00000000
     atom   12 type  1   force =     0.00000000    0.00000000    0.00000000
     atom   13 type  1   force =     0.00000000    0.00000000    0.00000000
     atom   14 type  1   force =     0.00000000    0.00000000    0.00000000
     atom   15 type  1   force =     0.00000000    0.00000000    0.00000000
     atom   16 type  1   force =     0.00000000    0.00000000    0.00000000
     atom   17 type  1   force =     0.00000000    0.00000000    0.00000000
     atom   18 type  1   force =     0.00000000    0.00000000    0.00000000
     atom   19 type  1   force =     0.00000000    0.00000000    0.00000000
     atom   20 type  1   force =     0.00000000    0.00000000    0.00000000
     atom   21 type  1   force =     0.00000000    0.00000000    0.00000000
     atom   22 type  1   force =     0.00000000    0.00000000    0.00000000
     atom   23 type  1   force =     0.00000000    0.00000000    0.00000000
     atom   24 type  1   force =     0.00000000    0.00000000    0.00000000
     atom   25 type  1   force =     0.00000000    0.00000000    0.00000000
     atom   26 type  1   force =     0.00000000    0.00000000    0.00000000
     atom   27 type  1   force =     0.00000000    0.00000000    0.00000000
     atom   28 type  1   force =     0.00000000    0.00000000    0.00000000
     atom   29 type  1   force =     0.00000000    0.00000000    0.00000000
     atom   30 type  1   force =     0.00000000    0.00000000    0.00000000
     atom   31 type  1   force =     0.00000000    0.00000000    0.00000000
     atom   32 type  1   force =     0.00000000    0.00000000    0.00000000
     atom   33 type  1   force =     0.00000000    0.00000000    0.00000000
     atom   34 type  1   force =     0.00000000    0.00000000    0.00000000
     atom   35 type  1   force =     0.00000000    0.00000000    0.00000000
     atom   36 type  1   force =     0.00000000    0.00000000    0.00000000
     The SCF correction term to forces
     atom    1 type  1   force =     0.00000000   -0.00000000   -0.00000001
     atom    2 type  1   force =     0.00000000    0.00000000    0.00000001
     atom    3 type  1   force =     0.00000000    0.00000000    0.00000000
     atom    4 type  1   force =     0.00000000    0.00000000    0.00000000
     atom    5 type  1   force =    -0.00000000    0.00000000    0.00000000
     atom    6 type  1   force =     0.00000000   -0.00000000    0.00000000
     atom    7 type  1   force =    -0.00000000    0.00000000    0.00000000
     atom    8 type  1   force =     0.00000000    0.00000000    0.00000000
     atom    9 type  1   force =     0.00000000   -0.00000000    0.00000000
     atom   10 type  1   force =     0.00000000   -0.00000000   -0.00000000
     atom   11 type  1   force =     0.00000000   -0.00000000    0.00000000
     atom   12 type  1   force =     0.00000000    0.00000000    0.00000000
     atom   13 type  1   force =     0.00000000   -0.00000000    0.00000000
     atom   14 type  1   force =    -0.00000000   -0.00000000   -0.00000000
     atom   15 type  1   force =     0.00000000   -0.00000000    0.00000000
     atom   16 type  1   force =    -0.00000000    0.00000000   -0.00000001
     atom   17 type  1   force =     0.00000000   -0.00000000    0.00000001
     atom   18 type  1   force =    -0.00000000    0.00000000    0.00000000
     atom   19 type  1   force =    -0.00000000    0.00000000   -0.00000001
     atom   20 type  1   force =     0.00000000   -0.00000000    0.00000001
     atom   21 type  1   force =    -0.00000000    0.00000000    0.00000000
     atom   22 type  1   force =     0.00000000    0.00000000    0.00000000
     atom   23 type  1   force =     0.00000000    0.00000000    0.00000000
     atom   24 type  1   force =    -0.00000000   -0.00000000    0.00000000
     atom   25 type  1   force =    -0.00000000    0.00000000    0.00000000
     atom   26 type  1   force =    -0.00000000    0.00000000    0.00000000
     atom   27 type  1   force =     0.00000000   -0.00000000    0.00000000
     atom   28 type  1   force =    -0.00000000   -0.00000000   -0.00000000
     atom   29 type  1   force =     0.00000000   -0.00000000    0.00000000
     atom   30 type  1   force =    -0.00000000    0.00000000    0.00000000
     atom   31 type  1   force =    -0.00000000   -0.00000000    0.00000000
     atom   32 type  1   force =     0.00000000   -0.00000000    0.00000000
     atom   33 type  1   force =    -0.00000000   -0.00000000    0.00000000
     atom   34 type  1   force =    -0.00000000    0.00000000   -0.00000001
     atom   35 type  1   force =    -0.00000000    0.00000000    0.00000001
     atom   36 type  1   force =    -0.00000000    0.00000000    0.00000000

     Total force =     0.020069     Total SCF correction =     0.000000

     Writing all to output data dir ./Li/Lithium.save/ :
     XML data file

     General routines

     Parallel routines

     PAW routines

     Environ routines

   This run was terminated on:  11:47:49  21Jan2025

   JOB DONE.