     Program PWSCF v.7.4 starts on 24Jan2025 at  1:57:13

     Reading input from espresso.pwi
Warning: card &CELL ignored
Warning: card    PRESS_CONV_THR   = 0.1 ignored
Warning: card    CELL_DOFREE      = 'ALL' ignored
Warning: card / ignored
Warning: card &FCP ignored
Warning: card / ignored
Warning: card &RISM ignored
Warning: card / ignored

     Current dimensions of program PWSCF are:
     Max number of different atomic species (ntypx) = 10
     Max number of k-points (npk) =  40000
     Max angular momentum in pseudopotentials (lmaxx) =  4

     IMPORTANT: XC functional enforced from input :
     Exchange-correlation= PBE
                           (   1   4   3   4   0   0   0)
     Any further DFT definition will be discarded
     Please, verify this is what you really want

     Reading input from environ.in:
     * using ionic solvent mode
     * setting boundary derivatives method to SSCS default
     * setting electrolyte-boundary derivatives method to SSCS default

Environ Warning (1001): card EOF ignored

     K-points division:     npool     =       2
     R & G space division:  proc/nbgrp/npool/nimage =     256
     Subspace diagonalization in iterative solution of the eigenvalue problem:
     a serial algorithm will be used

     Using Slab Decomposition

     bravais-lattice index     =           12
     lattice parameter (alat)  =      12.9830  a.u.
     unit-cell volume          =   12574.0527 (a.u.)^3
     number of atoms/cell      =           20
     number of atomic types    =            1
     number of electrons       =        60.00
     number of Kohn-Sham states=           45
     kinetic-energy cutoff     =      80.0000  Ry
     charge density cutoff     =     800.0000  Ry
     scf convergence threshold =      1.0E-06
     mixing beta               =       0.2000
     number of iterations used =            8  local-TF  mixing
     energy convergence thresh.=      1.0E-05
     force convergence thresh. =      3.9E-04
     Exchange-correlation= PBE
                           (   1   4   3   4   0   0   0)
     nstep                     =          999

                                  Environ Setup Summary

          O. Andreussi, I. Dabo and N. Marzari, J. Chem. Phys. 136, 064102 (2012)
          F. Nattino, M. Truscott, N. Marzari, and O. Andreussi, J. Chem. Phys. 150, 041722 (2019)

     in publications or presentations arising from this work.

     Parameters

     compensation onset threshold      =               0.1000E+00
     static permittivity               =                    89.90
     surface tension in input (dyn/cm) =                    37.30
     surface tension in internal units =               0.4792E-04

     Solvent Boundary

     solvent mode                      =                    ionic
     derivatives method                =                   lowmem
     electrolyte derivatives method    =                   lowmem
     numerical core for derivatives    =                      fft
     switching function adopted        =                     SCCS
     density limit for vacuum region   =               0.5000E-02
     density limit for bulk solvent    =               0.1000E-03
     soft-sphere radius mode           =                    bondi
     soft-sphere softness              =                     0.50
     alpha                             =                     1.32

     Electrostatic Setup

     electrostatic problem to solve    =                    modpb
     numerical solver adopted          =                   newton
     type of auxiliary density adopted =                     none
     numerical core for poisson        =                      fft
     adopting a nested solver scheme
     inner solver                      =                       cg
     inner core                        =                      fft
     type of pbc corrections           =                parabolic
     numerical core for corrections    =                      1da

     >>>>> Grand-Canonical SCF is activated <<<<<
     Initial Total Charge  =     0.000000 e
     Target Fermi Energy   =    -1.654000 eV
     Thr. of Fermi Energy  =     0.001000 eV
     Wave-shift of Kerker  =     0.400000 bohr^-1
     Wave-shift of Hartree =     1.500000 bohr^-1
     Mixing Rate of Fermi  =     0.050000

     celldm(1)=  12.983009  celldm(2)=   0.829156  celldm(3)=   7.267908
     celldm(4)=  -0.301511  celldm(5)=   0.000000  celldm(6)=   0.000000

     crystal axes: (cart. coord. in units of alat)
               a(1) = (   1.000000   0.000000   0.000000 )
               a(2) = (  -0.250000   0.790569   0.000000 )
               a(3) = (   0.000000   0.000000   7.267908 )

     reciprocal axes: (cart. coord. in units 2 pi/alat)
               b(1) = (  1.000000  0.316228 -0.000000 )
               b(2) = (  0.000000  1.264912  0.000000 )
               b(3) = (  0.000000 -0.000000  0.137591 )

     PseudoPot. # 1 for Li read from file:
     /work/e89/e89/ba3g18/Repos/Pseudopotentials/Pslibrary/Li.pbe-sl-kjpaw_psl.1.0.0.UPF
     MD5 check sum: 3f4d2cafebb47c6c3aa8ed472e6f074d
     Pseudo is Projector augmented-wave, Zval =  3.0
     Generated using 'atomic' code by A. Dal Corso  v.7.4
     Shape of augmentation charge: PSQ
     Using radial grid of 1017 points,  4 beta functions with:
                l(1) =   0
                l(2) =   0
                l(3) =   1
                l(4) =   1
     Q(r) pseudized with 0 coefficients

     atomic species   valence    mass     pseudopotential
     Li                3.00     6.94000     Li( 1.00)

     No symmetry found

                                    s                        frac. trans.

      isym =  1     identity

 cryst.   s( 1) = (     1          0          0      )
                  (     0          1          0      )
                  (     0          0          1      )

 cart.    s( 1) = (  1.0000000 -0.0000000  0.0000000 )
                  (  0.0000000  1.0000000  0.0000000 )
                  (  0.0000000  0.0000000  1.0000000 )

     point group C_1 (1)
     there are  1 classes
     the character table:

       E
A      1.00

     the symmetry operations in each class and the name of the first element:

     E        1
          identity

   Cartesian axes

     site n.     atom                  positions (alat units)
         1        Li     tau(   1) = (   0.2502412   0.3263062   3.0459274  )
         2        Li     tau(   2) = (   0.0003064   0.6235420   3.2612444  )
         3        Li     tau(   3) = (   0.0001245   0.1692446   3.3709853  )
         4        Li     tau(   4) = (   0.2501252   0.4635775   3.5710809  )
         5        Li     tau(   5) = (   0.2498645   0.0108509   3.6966413  )
         6        Li     tau(   6) = (  -0.0001153   0.3051332   3.8968640  )
         7        Li     tau(   7) = (   0.2496958   0.6414310   4.0066286  )
         8        Li     tau(   8) = (   0.2497629   0.1479460   4.2221314  )
         9        Li     tau(   9) = (  -0.0003816   0.5010153   4.3312482  )
        10        Li     tau(  10) = (   0.5003873  -0.0267771   2.9368104  )
        11        Li     tau(  11) = (   0.7502309   0.3263074   3.0459203  )
        12        Li     tau(  12) = (   0.5003092   0.6235213   3.2612353  )
        13        Li     tau(  13) = (   0.5001088   0.1692326   3.3709901  )
        14        Li     tau(  14) = (   0.7501423   0.4635873   3.5710989  )
        15        Li     tau(  15) = (   0.7498644   0.0108556   3.6966292  )
        16        Li     tau(  16) = (   0.4998826   0.3051484   3.8968721  )
        17        Li     tau(  17) = (   0.7496886   0.6414323   4.0066155  )
        18        Li     tau(  18) = (   0.7497702   0.1479504   4.2221143  )
        19        Li     tau(  19) = (   0.4996119   0.5010114   4.3312333  )
        20        Li     tau(  20) = (   1.0003804  -0.0267599   2.9368037  )

   Crystallographic axes

     site n.     atom                  positions (cryst. coord.)
         1        Li     tau(   1) = (  0.3534283  0.4127485  0.4190927  )
         2        Li     tau(   2) = (  0.1974878  0.7887256  0.4487184  )
         3        Li     tau(   3) = (  0.0536444  0.2140795  0.4638178  )
         4        Li     tau(   4) = (  0.3967214  0.5863847  0.4913492  )
         5        Li     tau(   5) = (  0.2532959  0.0137254  0.5086252  )
         6        Li     tau(   6) = (  0.0963763  0.3859665  0.5361741  )
         7        Li     tau(   7) = (  0.4525343  0.8113536  0.5512767  )
         8        Li     tau(   8) = (  0.2965476  0.1871386  0.5809280  )
         9        Li     tau(   9) = (  0.1580535  0.6337402  0.5959415  )
        10        Li     tau(  10) = (  0.4919197 -0.0338706  0.4040792  )
        11        Li     tau(  11) = (  0.8534184  0.4127500  0.4190918  )
        12        Li     tau(  12) = (  0.6974840  0.7886994  0.4487172  )
        13        Li     tau(  13) = (  0.5536248  0.2140643  0.4638185  )
        14        Li     tau(  14) = (  0.8967416  0.5863971  0.4913517  )
        15        Li     tau(  15) = (  0.7532973  0.0137314  0.5086236  )
        16        Li     tau(  16) = (  0.5963790  0.3859858  0.5361752  )
        17        Li     tau(  17) = (  0.9525274  0.8113552  0.5512749  )
        18        Li     tau(  18) = (  0.7965563  0.1871441  0.5809257  )
        19        Li     tau(  19) = (  0.6580457  0.6337352  0.5959395  )
        20        Li     tau(  20) = (  0.9919182 -0.0338489  0.4040783  )

     number of k points=    62  Marzari-Vanderbilt smearing, width (Ry)=  0.0100
                       cart. coord. in units 2pi/alat
        k(    1) = (   0.0000000   0.0000000   0.0000000), wk =   0.0166667
        k(    2) = (   0.0000000   0.1054093   0.0000000), wk =   0.0333333
        k(    3) = (   0.0000000   0.2108186   0.0000000), wk =   0.0333333
        k(    4) = (   0.0000000   0.3162279   0.0000000), wk =   0.0333333
        k(    5) = (   0.0000000   0.4216372   0.0000000), wk =   0.0333333
        k(    6) = (   0.0000000   0.5270466   0.0000000), wk =   0.0333333
        k(    7) = (   0.0000000  -0.6324559   0.0000000), wk =   0.0166667
        k(    8) = (   0.1000000   0.0316228   0.0000000), wk =   0.0333333
        k(    9) = (   0.1000000   0.1370321   0.0000000), wk =   0.0333333
        k(   10) = (   0.1000000   0.2424414   0.0000000), wk =   0.0333333
        k(   11) = (   0.1000000   0.3478507   0.0000000), wk =   0.0333333
        k(   12) = (   0.1000000   0.4532600   0.0000000), wk =   0.0333333
        k(   13) = (   0.1000000   0.5586693   0.0000000), wk =   0.0333333
        k(   14) = (   0.1000000  -0.6008331   0.0000000), wk =   0.0333333
        k(   15) = (   0.1000000  -0.4954238   0.0000000), wk =   0.0333333
        k(   16) = (   0.1000000  -0.3900144   0.0000000), wk =   0.0333333
        k(   17) = (   0.1000000  -0.2846051   0.0000000), wk =   0.0333333
        k(   18) = (   0.1000000  -0.1791958   0.0000000), wk =   0.0333333
        k(   19) = (   0.1000000  -0.0737865   0.0000000), wk =   0.0333333
        k(   20) = (   0.2000000   0.0632456   0.0000000), wk =   0.0333333
[...]
    -2.9947  -2.9947  -2.8347  -2.8347  -2.5277  -2.5277  -2.0845  -2.0845
    -1.8280  -1.8280  -1.3192  -1.3192  -1.0248  -1.0248  -0.4941  -0.4941
    -0.0436  -0.0436   0.4360   0.4361   0.5365

     occupation numbers
     1.0000   1.0000   1.0000   1.0000   1.0000   1.0000   1.0000   1.0000
     1.0000   1.0000   1.0000   1.0000   1.0000   1.0000   1.0000   1.0000
     1.0000   1.0000   1.0000   1.0000   1.0000   1.0000   1.0000   1.0000
     1.0000   1.0000   1.0000   1.0000   1.0000   1.0000   1.0007   1.0007
     1.0783   1.0783   0.0000   0.0000   0.0000   0.0000   0.0000   0.0000
     0.0000   0.0000   0.0000   0.0000   0.0000

     the Fermi energy is    -1.6540 ev

!    total energy              =    -300.86020378 Ry
     total all-electron energy =      -300.860366 Ry
     estimated scf accuracy    <          4.6E-13 Ry

!    total charge of GC-SCF    =      -3.39822466 e
     smearing contrib. (-TS)   =      -0.00090922 Ry
     internal energy E=F+TS    =    -300.85929456 Ry

     The total energy is F=E-TS. E is the sum of the following terms:
     one-electron contribution =   -3672.06868862 Ry
     hartree contribution      =    1806.19201367 Ry
     xc contribution           =     -72.64266911 Ry
     ewald contribution        =    1534.14407617 Ry
     one-center paw contrib.   =       1.76478284 Ry
      -> PAW hartree energy AE =       7.42270661 Ry
      -> PAW hartree energy PS =      -7.19966596 Ry
      -> PAW xc energy AE      =      -3.48330657 Ry
      -> PAW xc energy PS      =       3.34862698 Ry
      -> total E_H with PAW    =    1806.41505432 Ry
      -> total E_XC with PAW   =     -72.77734871 Ry
     pot.stat. contrib. (-muN) =       0.41311115 Ry
     electrostatic embedding   =      -3.08399547 Ry
     cavitation energy         =       0.01491982 Ry
     electrolyte free energy   =      -0.05788247 Ry
     correction to one-el term =     104.46503745 Ry

     WARNING: you are using the parabolic pbc correction;
              the potential shift above must be added to
              band and Fermi energies.

     convergence has been achieved in  13 iterations
     The dielectric solvent contribution to forces
     atom    1 type  1   force =     0.00000586   -0.01307050    0.15628508
     atom    2 type  1   force =     0.00000014    0.00451430    0.09484294
     atom    3 type  1   force =     0.00000068   -0.00159808    0.06536366
     atom    4 type  1   force =    -0.00000010    0.00010568    0.01638919
     atom    5 type  1   force =    -0.00000041   -0.00010469   -0.01632769
     atom    6 type  1   force =    -0.00000017    0.00159407   -0.06532702
     atom    7 type  1   force =    -0.00000050   -0.00450575   -0.09480772
     atom    8 type  1   force =    -0.00000625    0.01306301   -0.15628369
     atom    9 type  1   force =     0.00000446   -0.00838036   -0.11487874
     atom   10 type  1   force =    -0.00000206    0.00840109    0.11489352
     atom   11 type  1   force =     0.00000441   -0.01307146    0.15628419
     atom   12 type  1   force =     0.00000008    0.00451391    0.09484365
     atom   13 type  1   force =    -0.00000008   -0.00159799    0.06536216
     atom   14 type  1   force =     0.00000058    0.00010595    0.01638583
     atom   15 type  1   force =    -0.00000009   -0.00010456   -0.01632486
     atom   16 type  1   force =    -0.00000042    0.00159427   -0.06532836
     atom   17 type  1   force =     0.00000026   -0.00450486   -0.09480541
     atom   18 type  1   force =    -0.00000404    0.01306375   -0.15628487
     atom   19 type  1   force =     0.00000294   -0.00838110   -0.11488595
     atom   20 type  1   force =    -0.00000529    0.00839776    0.11488874

     Forces acting on atoms (cartesian axes, Ry/au):

     atom    1 type  1   force =    -0.00000013   -0.00017020   -0.00014257
     atom    2 type  1   force =    -0.00000446    0.00024512    0.00014079
     atom    3 type  1   force =     0.00000155   -0.00011414    0.00007550
     atom    4 type  1   force =     0.00000163   -0.00027509    0.00027798
     atom    5 type  1   force =     0.00000255    0.00026309   -0.00023731
     atom    6 type  1   force =    -0.00000435    0.00010868   -0.00005679
     atom    7 type  1   force =     0.00000145   -0.00025147   -0.00013814
     atom    8 type  1   force =    -0.00000104    0.00018242    0.00011278
     atom    9 type  1   force =     0.00000404   -0.00036874   -0.00022640
     atom   10 type  1   force =    -0.00000556    0.00038279    0.00018798
     atom   11 type  1   force =     0.00000210   -0.00016946   -0.00014069
     atom   12 type  1   force =    -0.00000260    0.00025089    0.00014555
     atom   13 type  1   force =     0.00000872   -0.00011095    0.00007508
     atom   14 type  1   force =    -0.00000390   -0.00027856    0.00027273
     atom   15 type  1   force =     0.00000048    0.00026168   -0.00023534
     atom   16 type  1   force =    -0.00000619    0.00010369   -0.00006033
     atom   17 type  1   force =     0.00000557   -0.00025337   -0.00013298
     atom   18 type  1   force =    -0.00000197    0.00018189    0.00011587
     atom   19 type  1   force =     0.00000634   -0.00036813   -0.00022268
     atom   20 type  1   force =    -0.00000421    0.00037986    0.00018898
     The non-local contrib.  to forces
     atom    1 type  1   force =     0.00002640    0.00621342   -0.02616253
     atom    2 type  1   force =     0.00004342    0.00060437    0.00479088
     atom    3 type  1   force =     0.00002933    0.00098845    0.00155888
     atom    4 type  1   force =     0.00001065   -0.00146893   -0.00184775
     atom    5 type  1   force =    -0.00000465    0.00147433    0.00189633
     atom    6 type  1   force =    -0.00003283   -0.00096955   -0.00152540
     atom    7 type  1   force =    -0.00004848   -0.00062200   -0.00480390
     atom    8 type  1   force =    -0.00002782   -0.00620767    0.02611811
     atom    9 type  1   force =     0.00000271    0.00638725    0.03335782
     atom   10 type  1   force =    -0.00000732   -0.00639353   -0.03338895
     atom   11 type  1   force =     0.00003136    0.00621262   -0.02615707
     atom   12 type  1   force =     0.00004747    0.00060638    0.00479498
     atom   13 type  1   force =     0.00003948    0.00098891    0.00156107
     atom   14 type  1   force =     0.00000203   -0.00146939   -0.00185174
     atom   15 type  1   force =    -0.00000901    0.00147474    0.00188881
     atom   16 type  1   force =    -0.00003587   -0.00097190   -0.00153052
     atom   17 type  1   force =    -0.00004268   -0.00062422   -0.00479941
     atom   18 type  1   force =    -0.00002898   -0.00620642    0.02611789
     atom   19 type  1   force =     0.00000813    0.00638722    0.03336243
     atom   20 type  1   force =    -0.00000319   -0.00639396   -0.03339054
     The ionic contribution  to forces
     atom    1 type  1   force =    -0.00000057    0.06971859   -9.69419463
     atom    2 type  1   force =    -0.00023350   -0.03641802   -6.19705906
     atom    3 type  1   force =    -0.00009730    0.01623112   -4.34457218
     atom    4 type  1   force =    -0.00006912   -0.01413435   -1.02801775
     atom    5 type  1   force =     0.00019080    0.01400223    1.02838954
     atom    6 type  1   force =     0.00001045   -0.01607393    4.34527098
     atom    7 type  1   force =     0.00015288    0.03609697    6.19671706
     atom    8 type  1   force =    -0.00002715   -0.06952270    9.69431368
     atom    9 type  1   force =     0.00006048    0.04618609   11.04692778
     atom   10 type  1   force =    -0.00011097   -0.04606271  -11.04762121
     atom   11 type  1   force =     0.00006114    0.06973190   -9.69421026
     atom   12 type  1   force =    -0.00014836   -0.03632216   -6.19705455
     atom   13 type  1   force =     0.00011258    0.01628527   -4.34445254
     atom   14 type  1   force =    -0.00021607   -0.01420775   -1.02788663
     atom   15 type  1   force =     0.00010248    0.01397550    1.02815938
     atom   16 type  1   force =    -0.00002761   -0.01615367    4.34529055
     atom   17 type  1   force =     0.00022840    0.03606411    6.19663848
     atom   18 type  1   force =    -0.00004304   -0.06950723    9.69415453
     atom   19 type  1   force =     0.00012931    0.04619372   11.04686239
     atom   20 type  1   force =    -0.00007482   -0.04608299  -11.04765556
     The local contribution  to forces
     atom    1 type  1   force =    -0.00003182   -0.06303189    9.56392870
     atom    2 type  1   force =     0.00018548    0.03154448    6.09756563
     atom    3 type  1   force =     0.00006886   -0.01573563    4.27772473
     atom    4 type  1   force =     0.00006019    0.01522257    1.01375414
     atom    5 type  1   force =    -0.00018319   -0.01510883   -1.01419533
     atom    6 type  1   force =     0.00001820    0.01555809   -4.27847497
     atom    7 type  1   force =    -0.00010245   -0.03122068   -6.09724320
     atom    8 type  1   force =     0.00006017    0.06285000   -9.56403441
     atom    9 type  1   force =    -0.00006360   -0.04456249  -10.96563199
     atom   10 type  1   force =     0.00011477    0.04443872   10.96630335
     atom   11 type  1   force =    -0.00009478   -0.06304268    9.56394166
     atom   12 type  1   force =     0.00009820    0.03145277    6.09756107
     atom   13 type  1   force =    -0.00014327   -0.01578715    4.27760397
     atom   14 type  1   force =     0.00020957    0.01529270    1.01362510
     atom   15 type  1   force =    -0.00009288   -0.01508405   -1.01395851
     atom   16 type  1   force =     0.00005770    0.01563499   -4.27849161
     atom   17 type  1   force =    -0.00018040   -0.03118839   -6.09716626
     atom   18 type  1   force =     0.00007408    0.06283203   -9.56387077
     atom   19 type  1   force =    -0.00013403   -0.04456875  -10.96556026
     atom   20 type  1   force =     0.00007908    0.04445982   10.96634508
     The core correction contribution to forces
     atom    1 type  1   force =     0.00000000    0.00000000    0.00000000
     atom    2 type  1   force =     0.00000000    0.00000000    0.00000000
     atom    3 type  1   force =     0.00000000    0.00000000    0.00000000
     atom    4 type  1   force =     0.00000000    0.00000000    0.00000000
     atom    5 type  1   force =     0.00000000    0.00000000    0.00000000
     atom    6 type  1   force =     0.00000000    0.00000000    0.00000000
     atom    7 type  1   force =     0.00000000    0.00000000    0.00000000
     atom    8 type  1   force =     0.00000000    0.00000000    0.00000000
     atom    9 type  1   force =     0.00000000    0.00000000    0.00000000
     atom   10 type  1   force =     0.00000000    0.00000000    0.00000000
     atom   11 type  1   force =     0.00000000    0.00000000    0.00000000
     atom   12 type  1   force =     0.00000000    0.00000000    0.00000000
     atom   13 type  1   force =     0.00000000    0.00000000    0.00000000
     atom   14 type  1   force =     0.00000000    0.00000000    0.00000000
     atom   15 type  1   force =     0.00000000    0.00000000    0.00000000
     atom   16 type  1   force =     0.00000000    0.00000000    0.00000000
     atom   17 type  1   force =     0.00000000    0.00000000    0.00000000
     atom   18 type  1   force =     0.00000000    0.00000000    0.00000000
     atom   19 type  1   force =     0.00000000    0.00000000    0.00000000
     atom   20 type  1   force =     0.00000000    0.00000000    0.00000000
     The Hubbard contrib.    to forces
     atom    1 type  1   force =     0.00000000    0.00000000    0.00000000
     atom    2 type  1   force =     0.00000000    0.00000000    0.00000000
     atom    3 type  1   force =     0.00000000    0.00000000    0.00000000
     atom    4 type  1   force =     0.00000000    0.00000000    0.00000000
     atom    5 type  1   force =     0.00000000    0.00000000    0.00000000
     atom    6 type  1   force =     0.00000000    0.00000000    0.00000000
     atom    7 type  1   force =     0.00000000    0.00000000    0.00000000
     atom    8 type  1   force =     0.00000000    0.00000000    0.00000000
     atom    9 type  1   force =     0.00000000    0.00000000    0.00000000
     atom   10 type  1   force =     0.00000000    0.00000000    0.00000000
     atom   11 type  1   force =     0.00000000    0.00000000    0.00000000
     atom   12 type  1   force =     0.00000000    0.00000000    0.00000000
     atom   13 type  1   force =     0.00000000    0.00000000    0.00000000
     atom   14 type  1   force =     0.00000000    0.00000000    0.00000000
     atom   15 type  1   force =     0.00000000    0.00000000    0.00000000
     atom   16 type  1   force =     0.00000000    0.00000000    0.00000000
     atom   17 type  1   force =     0.00000000    0.00000000    0.00000000
     atom   18 type  1   force =     0.00000000    0.00000000    0.00000000
     atom   19 type  1   force =     0.00000000    0.00000000    0.00000000
     atom   20 type  1   force =     0.00000000    0.00000000    0.00000000
     The SCF correction term to forces
     atom    1 type  1   force =    -0.00000001    0.00000019    0.00000082
     atom    2 type  1   force =     0.00000000    0.00000001    0.00000041
     atom    3 type  1   force =    -0.00000001    0.00000001    0.00000041
     atom    4 type  1   force =     0.00000000   -0.00000005    0.00000018
     atom    5 type  1   force =     0.00000000    0.00000005   -0.00000016
     atom    6 type  1   force =     0.00000000   -0.00000000   -0.00000037
     atom    7 type  1   force =    -0.00000001    0.00000001   -0.00000036
     atom    8 type  1   force =     0.00000002   -0.00000021   -0.00000090
     atom    9 type  1   force =    -0.00000001    0.00000079   -0.00000125
     atom   10 type  1   force =     0.00000002   -0.00000078    0.00000127
     atom   11 type  1   force =    -0.00000002    0.00000018    0.00000081
     atom   12 type  1   force =     0.00000001    0.00000001    0.00000041
     atom   13 type  1   force =     0.00000001    0.00000003    0.00000043
     atom   14 type  1   force =    -0.00000002   -0.00000006    0.00000018
     atom   15 type  1   force =    -0.00000001    0.00000006   -0.00000016
     atom   16 type  1   force =     0.00000001    0.00000000   -0.00000038
     atom   17 type  1   force =    -0.00000001    0.00000001   -0.00000038
     atom   18 type  1   force =     0.00000001   -0.00000023   -0.00000089
     atom   19 type  1   force =    -0.00000002    0.00000078   -0.00000127
     atom   20 type  1   force =     0.00000001   -0.00000076    0.00000127

     Total force =     0.001369     Total SCF correction =     0.000004
     Energy error            =      5.9E-06 Ry
     Gradient error          =      3.8E-04 Ry/Bohr

     bfgs converged in   5 scf cycles and   4 bfgs steps
     (criteria: energy <  1.0E-05 Ry, force <  3.9E-04 Ry/Bohr)

     End of BFGS Geometry Optimization

     Final energy             =    -300.8602037823 Ry

     File ./Li/Lithium.bfgs deleted, as requested
Begin final coordinates

ATOMIC_POSITIONS (angstrom)
Li               1.7192341777        2.2410629812       20.9260629072
Li               0.0020868743        4.2849424516       22.4063225989
Li               0.0008605589        1.1622047175       23.1600808801
Li               1.7184458636        3.1838405094       24.5354373295
Li               1.7166573021        0.0755914358       25.3960561712
Li              -0.0008085936        2.0969009408       26.7722806873
Li               1.7154942490        4.4057935359       27.5262028443
Li               1.7159455897        1.0172347290       29.0077953226
Li              -0.0026086663        3.4407581349       29.7562016464
Li               3.4377981191       -0.1825392118       20.1776801329
Li               5.1543287908        2.2410742812       20.9260220720
Li               3.4372709985        4.2848223640       22.4062808016
Li               3.4359375886        1.1621343842       23.1601124817
Li               5.1536977949        3.1838937894       24.5355395296
Li               5.1518032112        0.0756184520       25.3959803902
Li               3.4343251706        2.0969854942       26.7723227363
Li               5.1506169336        4.4057947416       27.5261344720
Li               5.1511486627        1.0172627568       29.0076894460
Li               3.4325112040        3.4407329383       29.7561142712
Li               6.8729127739       -0.1824316517       20.1776381632
End final coordinates

     Writing all to output data dir ./Li/Lithium.save/ :
     XML data file

     General routines

     Parallel routines

     PAW routines

     Environ routines

   This run was terminated on:   2:20:38  24Jan2025

   JOB DONE.