     Program PWSCF v.7.4 starts on  2Jan2025 at 10:45:25

     Reading input from espresso.pwi
Warning: card &CELL ignored
Warning: card    PRESS_CONV_THR   = 0.1 ignored
Warning: card    CELL_DOFREE      = 'ALL' ignored
Warning: card / ignored
Warning: card &FCP ignored
Warning: card / ignored
Warning: card &RISM ignored
Warning: card / ignored

     Current dimensions of program PWSCF are:
     Max number of different atomic species (ntypx) = 10
     Max number of k-points (npk) =  40000
     Max angular momentum in pseudopotentials (lmaxx) =  4

     IMPORTANT: XC functional enforced from input :
     Exchange-correlation= PBE
                           (   1   4   3   4   0   0   0)
     Any further DFT definition will be discarded
     Please, verify this is what you really want

     Reading input from environ.in:
     * using ionic solvent mode
     * setting boundary derivatives method to SSCS default
     * setting electrolyte-boundary derivatives method to SSCS default

Environ Warning (1001): card EOF ignored

     R & G space division:  proc/nbgrp/npool/nimage =     256
     Subspace diagonalization in iterative solution of the eigenvalue problem:
     a serial algorithm will be used

     Using Slab Decomposition

     bravais-lattice index     =           14
     lattice parameter (alat)  =      11.2436  a.u.
     unit-cell volume          =   10615.2838 (a.u.)^3
     number of atoms/cell      =           16
     number of atomic types    =            1
     number of electrons       =        48.00
     number of Kohn-Sham states=           36
     kinetic-energy cutoff     =      80.0000  Ry
     charge density cutoff     =     800.0000  Ry
     scf convergence threshold =      1.0E-06
     mixing beta               =       0.2000
     number of iterations used =            8  local-TF  mixing
     energy convergence thresh.=      1.0E-05
     force convergence thresh. =      3.9E-04
     Exchange-correlation= PBE
                           (   1   4   3   4   0   0   0)
     nstep                     =          999

                                  Environ Setup Summary

          O. Andreussi, I. Dabo and N. Marzari, J. Chem. Phys. 136, 064102 (2012)
          F. Nattino, M. Truscott, N. Marzari, and O. Andreussi, J. Chem. Phys. 150, 041722 (2019)

     in publications or presentations arising from this work.

     Parameters

     compensation onset threshold      =               0.1000E+00
     static permittivity               =                    89.90
     surface tension in input (dyn/cm) =                    37.30
     surface tension in internal units =               0.4792E-04

     Solvent Boundary

     solvent mode                      =                    ionic
     derivatives method                =                   lowmem
     electrolyte derivatives method    =                   lowmem
     numerical core for derivatives    =                      fft
     switching function adopted        =                     SCCS
     density limit for vacuum region   =               0.5000E-02
     density limit for bulk solvent    =               0.1000E-03
     soft-sphere radius mode           =                    bondi
     soft-sphere softness              =                     0.50
     alpha                             =                     1.32

     Electrostatic Setup

     electrostatic problem to solve    =                    modpb
     numerical solver adopted          =                   newton
     type of auxiliary density adopted =                     none
     numerical core for poisson        =                      fft
     adopting a nested solver scheme
     inner solver                      =                       cg
     inner core                        =                      fft
     type of pbc corrections           =                parabolic
     numerical core for corrections    =                      1da

     >>>>> Grand-Canonical SCF is activated <<<<<
     Initial Total Charge  =     0.000000 e
     Target Fermi Energy   =    -2.904000 eV
     Thr. of Fermi Energy  =     0.001000 eV
     Wave-shift of Kerker  =     0.400000 bohr^-1
     Wave-shift of Hartree =     1.500000 bohr^-1
     Mixing Rate of Fermi  =     0.050000

     celldm(1)=  11.243615  celldm(2)=   1.000000  celldm(3)=   7.921182
     celldm(4)=   0.000000  celldm(5)=   0.000000  celldm(6)=  -0.333333

     crystal axes: (cart. coord. in units of alat)
               a(1) = (   1.000000   0.000000   0.000000 )
               a(2) = (  -0.333333   0.942809   0.000000 )
               a(3) = (   0.000000   0.000000   7.921182 )

     reciprocal axes: (cart. coord. in units 2 pi/alat)
               b(1) = (  1.000000  0.353553 -0.000000 )
               b(2) = (  0.000000  1.060660  0.000000 )
               b(3) = (  0.000000 -0.000000  0.126244 )

     PseudoPot. # 1 for Li read from file:
     /work/e89/e89/ba3g18/Repos/Pseudopotentials/Pslibrary/Li.pbe-sl-kjpaw_psl.1.0.0.UPF
     MD5 check sum: 3f4d2cafebb47c6c3aa8ed472e6f074d
     Pseudo is Projector augmented-wave, Zval =  3.0
     Generated using 'atomic' code by A. Dal Corso  v.7.4
     Shape of augmentation charge: PSQ
     Using radial grid of 1017 points,  4 beta functions with:
                l(1) =   0
                l(2) =   0
                l(3) =   1
                l(4) =   1
     Q(r) pseudized with 0 coefficients

     atomic species   valence    mass     pseudopotential
     Li                3.00     6.94000     Li( 1.00)

      2 Sym. Ops. (no inversion) found

                                    s                        frac. trans.

      isym =  1     identity

 cryst.   s( 1) = (     1          0          0      )
                  (     0          1          0      )
                  (     0          0          1      )

 cart.    s( 1) = (  1.0000000 -0.0000000  0.0000000 )
                  (  0.0000000  1.0000000  0.0000000 )
                  (  0.0000000  0.0000000  1.0000000 )

      isym =  2     180 deg rotation - cart. axis [0,0,1]

 cryst.   s( 2) = (    -1          0          0      )
                  (     0         -1          0      )
                  (     0          0          1      )

 cart.    s( 2) = ( -1.0000000  0.0000000  0.0000000 )
                  (  0.0000000 -1.0000000  0.0000000 )
                  (  0.0000000  0.0000000  1.0000000 )

     point group C_2  (2)
     there are  2 classes
     the character table:

       E     C2
A      1.00  1.00
B      1.00 -1.00

     the symmetry operations in each class and the name of the first element:

     E        1
          identity
     C2       2
          180 deg rotation - cart. axis [0,0,1]

   Cartesian axes

     site n.     atom                  positions (alat units)
         1        Li     tau(   1) = (   0.1666604   0.2357049   3.3648285  )
         2        Li     tau(   2) = (   0.3333333   0.4714046   3.7546210  )
         3        Li     tau(   3) = (   0.1666696   0.2356965   4.1665696  )
         4        Li     tau(   4) = (   0.3333333   0.4714046   4.5563165  )
         5        Li     tau(   5) = (   0.0000054   0.7071093   3.3648588  )
         6        Li     tau(   6) = (   0.1666667   0.9428090   3.7546314  )
         7        Li     tau(   7) = (  -0.0000046   0.7071021   4.1665811  )
         8        Li     tau(   8) = (   0.1666667   0.9428090   4.5563362  )
         9        Li     tau(   9) = (   0.6666613   0.2356998   3.3648588  )
        10        Li     tau(  10) = (   0.8333333   0.4714046   3.7546253  )
        11        Li     tau(  11) = (   0.6666713   0.2357070   4.1665811  )
        12        Li     tau(  12) = (   0.8333333   0.4714046   4.5563341  )
        13        Li     tau(  13) = (   0.5000063   0.7071042   3.3648285  )
        14        Li     tau(  14) = (   0.6666667   0.9428090   3.7546245  )
        15        Li     tau(  15) = (   0.4999970   0.7071125   4.1665696  )
        16        Li     tau(  16) = (   0.6666667   0.9428090   4.5563323  )

   Crystallographic axes

     site n.     atom                  positions (cryst. coord.)
         1        Li     tau(   1) = (  0.2499946  0.2500028  0.4247887  )
         2        Li     tau(   2) = (  0.4999999  0.5000001  0.4739976  )
         3        Li     tau(   3) = (  0.2500009  0.2499939  0.5260035  )
         4        Li     tau(   4) = (  0.4999999  0.5000001  0.5752066  )
         5        Li     tau(   5) = (  0.2500061  0.7500027  0.4247925  )
         6        Li     tau(   6) = (  0.4999997  1.0000001  0.4739989  )
         7        Li     tau(   7) = (  0.2499935  0.7499950  0.5260050  )
         8        Li     tau(   8) = (  0.4999997  1.0000000  0.5752091  )
         9        Li     tau(   9) = (  0.7499936  0.2499974  0.4247925  )
        10        Li     tau(  10) = (  0.9999999  0.5000001  0.4739981  )
        11        Li     tau(  11) = (  0.7500062  0.2500050  0.5260050  )
        12        Li     tau(  12) = (  0.9999999  0.5000001  0.5752089  )
        13        Li     tau(  13) = (  0.7500051  0.7499973  0.4247887  )
        14        Li     tau(  14) = (  0.9999997  1.0000000  0.4739980  )
        15        Li     tau(  15) = (  0.7499988  0.7500062  0.5260035  )
        16        Li     tau(  16) = (  0.9999997  1.0000000  0.5752086  )

     number of k points=    61  Marzari-Vanderbilt smearing, width (Ry)=  0.0100
                       cart. coord. in units 2pi/alat
        k(    1) = (   0.0000000   0.0000000   0.0000000), wk =   0.0165289
        k(    2) = (   0.0000000   0.0964237   0.0000000), wk =   0.0330579
        k(    3) = (   0.0000000   0.1928473   0.0000000), wk =   0.0330579
        k(    4) = (   0.0000000   0.2892710   0.0000000), wk =   0.0330579
        k(    5) = (   0.0000000   0.3856946   0.0000000), wk =   0.0330579
        k(    6) = (   0.0000000   0.4821183   0.0000000), wk =   0.0330579
        k(    7) = (   0.0909091   0.0321412   0.0000000), wk =   0.0330579
        k(    8) = (   0.0909091   0.1285648   0.0000000), wk =   0.0330579
        k(    9) = (   0.0909091   0.2249885   0.0000000), wk =   0.0330579
        k(   10) = (   0.0909091   0.3214122   0.0000000), wk =   0.0330579
        k(   11) = (   0.0909091   0.4178358   0.0000000), wk =   0.0330579
        k(   12) = (   0.0909091   0.5142595   0.0000000), wk =   0.0330579
        k(   13) = (   0.0909091  -0.4499771   0.0000000), wk =   0.0330579
        k(   14) = (   0.0909091  -0.3535534   0.0000000), wk =   0.0330579
        k(   15) = (   0.0909091  -0.2571298   0.0000000), wk =   0.0330579
        k(   16) = (   0.0909091  -0.1607061   0.0000000), wk =   0.0330579
        k(   17) = (   0.0909091  -0.0642825   0.0000000), wk =   0.0330579
        k(   18) = (   0.1818182   0.0642824   0.0000000), wk =   0.0330579
        k(   19) = (   0.1818182   0.1607060   0.0000000), wk =   0.0330579
        k(   20) = (   0.1818182   0.2571297   0.0000000), wk =   0.0330579
        k(   21) = (   0.1818182   0.3535533   0.0000000), wk =   0.0330579
        k(   22) = (   0.1818182   0.4499770   0.0000000), wk =   0.0330579
        k(   23) = (   0.1818182   0.5464007   0.0000000), wk =   0.0330579
[...]
     number of bfgs steps    =   8

     energy             old  =    -240.5511522500 Ry
     energy             new  =    -240.5511775451 Ry

     CASE: energy            _new < energy            _old

     new trust radius        =       0.0053038707 bohr
     new conv_thr            =            1.0E-12 Ry

ATOMIC_POSITIONS (angstrom)
Li               0.9916111512        1.4024032944       20.0151683776
Li               1.9832882700        2.8047934300       22.3533023480
Li               0.9916594059        1.4023677261       24.7766328593
Li               1.9832882800        2.8047934500       27.1146752594
Li               0.0000285027        4.2072094469       20.0153093415
Li               0.9916443500        5.6095863900       22.3534029488
Li              -0.0000144541        4.2071650152       24.7766867972
Li               0.9916443300        5.6095863500       27.1147723789
Li               3.9665481173        1.4023770231       20.0153094015
Li               4.9582206700        2.8047934200       22.3533704377
Li               3.9665910641        1.4024214248       24.7766868172
Li               4.9582206800        2.8047934400       27.1147843271
Li               2.9749654688        4.2071831756       20.0151683476
Li               3.9665767500        5.6095863800       22.3533003699
Li               2.9749172041        4.2072187139       24.7766328293
Li               3.9665767300        5.6095863300       27.1147412157

     Writing config-only to output data dir ./Li/Lithium.save/ :
     XML data file     NEW-OLD atomic charge density approx. for the potential

[...]

     Self-consistent Calculation

[...]

     Threshold (ethr) on eigenvalues was too large:
     Diagonalizing with lowered threshold

     Davidson diagonalization with overlap

[...]

     add environment contribution to local potential

     total energy              =    -240.55118370 Ry
     estimated scf accuracy    <          3.4E-12 Ry

     total charge of GC-SCF    =       0.22825377 e
     the Fermi energy          =      -2.90402928 eV
                        (error :       0.00002928 eV)
     electrostatic embedding   =      -0.01892762 Ry
     cavitation energy         =       0.01235683 Ry
     electrolyte free energy   =      -0.00124810 Ry
     correction to one-el term =      -6.42161499 Ry

     iteration # 17     ecut=    80.00 Ry     beta= 0.20
     Davidson diagonalization with overlap

     ethr =  1.00E-13,  avg # of iterations =  9.9

     negative rho (up, down):  2.169E-04 0.000E+00

     End of self-consistent calculation

[...]

          k = 0.4545 0.0643 0.0000 (128255 PWs)   bands (ev):

   -49.8671 -49.8671 -49.8653 -49.8653 -49.8587 -49.8587 -49.8582 -49.8582
   -49.3929 -49.3900 -49.3850 -49.3844 -49.3830 -49.3822 -49.3789 -49.3770
    -5.6640  -5.1268  -5.0552  -4.5315  -3.8937  -3.5410  -3.3876  -2.9293
    -2.5882  -2.4853  -2.1267  -1.9712  -1.7605  -1.7016  -1.6559  -1.6482
    -0.9424  -0.4609   0.4188   0.5969

     occupation numbers
     1.0000   1.0000   1.0000   1.0000   1.0000   1.0000   1.0000   1.0000
     1.0000   1.0000   1.0000   1.0000   1.0000   1.0000   1.0000   1.0000
     1.0000   1.0000   1.0000   1.0000   1.0000   1.0000   1.0001   0.5344
     0.0001   0.0000   0.0000   0.0000   0.0000   0.0000   0.0000   0.0000
     0.0000   0.0000   0.0000   0.0000

     the Fermi energy is    -2.9040 ev

!    total energy              =    -240.55118374 Ry
     total all-electron energy =      -240.551314 Ry
     estimated scf accuracy    <          9.4E-13 Ry

!    total charge of GC-SCF    =       0.22824724 e
     smearing contrib. (-TS)   =      -0.00041105 Ry
     internal energy E=F+TS    =    -240.55077269 Ry

     The total energy is F=E-TS. E is the sum of the following terms:
     one-electron contribution =   -2477.60595707 Ry
     hartree contribution      =    1212.44597649 Ry
     xc contribution           =     -57.29023291 Ry
     ewald contribution        =    1086.96680687 Ry
     one-center paw contrib.   =       1.40970965 Ry
      -> PAW hartree energy AE =       7.43799200 Ry
      -> PAW hartree energy PS =      -7.21576861 Ry
      -> PAW xc energy AE      =      -3.48863572 Ry
      -> PAW xc energy PS      =       3.35444951 Ry
      -> total E_H with PAW    =    1212.66819987 Ry
      -> total E_XC with PAW   =     -57.42441912 Ry
     pot.stat. contrib. (-muN) =      -0.04871711 Ry
     electrostatic embedding   =      -0.01892337 Ry
     cavitation energy         =       0.01235683 Ry
     electrolyte free energy   =      -0.00124800 Ry
     correction to one-el term =      -6.42054408 Ry

     WARNING: you are using the parabolic pbc correction;
              the potential shift above must be added to
              band and Fermi energies.

     convergence has been achieved in  17 iterations
     The dielectric solvent contribution to forces
     atom    1 type  1   force =     0.00000019    0.00000012   -0.00300821
     atom    2 type  1   force =    -0.00000000   -0.00000000   -0.00184990
     atom    3 type  1   force =    -0.00000003   -0.00000000    0.00185310
     atom    4 type  1   force =    -0.00000000    0.00000002    0.00301094
     atom    5 type  1   force =     0.00000019    0.00000003   -0.00300790
     atom    6 type  1   force =     0.00000000   -0.00000000   -0.00184973
     atom    7 type  1   force =    -0.00000002    0.00000002    0.00185321
     atom    8 type  1   force =    -0.00000000   -0.00000002    0.00301144
     atom    9 type  1   force =    -0.00000020   -0.00000003   -0.00300789
     atom   10 type  1   force =     0.00000000   -0.00000000   -0.00184973
     atom   11 type  1   force =     0.00000002   -0.00000002    0.00185320
     atom   12 type  1   force =    -0.00000000    0.00000002    0.00301168
     atom   13 type  1   force =    -0.00000020   -0.00000012   -0.00300822
     atom   14 type  1   force =     0.00000000    0.00000000   -0.00184987
     atom   15 type  1   force =     0.00000003    0.00000000    0.00185310
     atom   16 type  1   force =    -0.00000001   -0.00000002    0.00301182

     Forces acting on atoms (cartesian axes, Ry/au):

     atom    1 type  1   force =     0.00000031    0.00000004    0.00005396
     atom    2 type  1   force =     0.00000000    0.00000000    0.00001817
     atom    3 type  1   force =    -0.00000029    0.00000028   -0.00001910
     atom    4 type  1   force =     0.00000000    0.00000000   -0.00005231
     atom    5 type  1   force =    -0.00000021   -0.00000013    0.00005308
     atom    6 type  1   force =     0.00000000    0.00000000    0.00001821
     atom    7 type  1   force =     0.00000030    0.00000001   -0.00001841
     atom    8 type  1   force =     0.00000000    0.00000000   -0.00005331
     atom    9 type  1   force =     0.00000021    0.00000013    0.00005308
     atom   10 type  1   force =     0.00000000    0.00000000    0.00001841
     atom   11 type  1   force =    -0.00000030   -0.00000001   -0.00001841
     atom   12 type  1   force =     0.00000000    0.00000000   -0.00005258
     atom   13 type  1   force =    -0.00000031   -0.00000004    0.00005396
     atom   14 type  1   force =     0.00000000    0.00000000    0.00001788
     atom   15 type  1   force =     0.00000029   -0.00000028   -0.00001910
     atom   16 type  1   force =     0.00000000    0.00000000   -0.00005351
     The non-local contrib.  to forces
     atom    1 type  1   force =    -0.00000027    0.00000125   -0.06003086
     atom    2 type  1   force =     0.00000000    0.00000000    0.00006285
     atom    3 type  1   force =     0.00000061   -0.00000049   -0.00006243
     atom    4 type  1   force =     0.00000000    0.00000000    0.06002271
     atom    5 type  1   force =     0.00000059   -0.00000082   -0.06002183
     atom    6 type  1   force =     0.00000000    0.00000000    0.00006003
     atom    7 type  1   force =    -0.00000060   -0.00000004   -0.00006212
     atom    8 type  1   force =     0.00000000    0.00000000    0.06002972
     atom    9 type  1   force =    -0.00000059    0.00000082   -0.06002183
     atom   10 type  1   force =     0.00000000    0.00000000    0.00006212
     atom   11 type  1   force =     0.00000060    0.00000004   -0.00006212
     atom   12 type  1   force =     0.00000000    0.00000000    0.06003033
     atom   13 type  1   force =     0.00000027   -0.00000125   -0.06003086
     atom   14 type  1   force =     0.00000000    0.00000000    0.00006132
     atom   15 type  1   force =    -0.00000061    0.00000049   -0.00006243
     atom   16 type  1   force =     0.00000000    0.00000000    0.06002720
     The ionic contribution  to forces
     atom    1 type  1   force =     0.00000475    0.00000616   -9.03873757
     atom    2 type  1   force =    -0.00000006   -0.00000007   -3.02556588
     atom    3 type  1   force =    -0.00000288    0.00000405    3.02538342
     atom    4 type  1   force =    -0.00000005   -0.00000011    9.03847125
     atom    5 type  1   force =    -0.00000055   -0.00000636   -9.03845889
     atom    6 type  1   force =     0.00000007    0.00000008   -3.02531072
     atom    7 type  1   force =     0.00000371   -0.00000021    3.02552971
     atom    8 type  1   force =     0.00000004    0.00000012    9.03865825
     atom    9 type  1   force =     0.00000052    0.00000634   -9.03845869
     atom   10 type  1   force =    -0.00000002   -0.00000005   -3.02539487
     atom   11 type  1   force =    -0.00000376    0.00000018    3.02552980
     atom   12 type  1   force =    -0.00000001   -0.00000011    9.03868977
     atom   13 type  1   force =    -0.00000478   -0.00000618   -9.03873775
     atom   14 type  1   force =     0.00000011    0.00000010   -3.02557155
     atom   15 type  1   force =     0.00000283   -0.00000408    3.02538331
     atom   16 type  1   force =     0.00000007    0.00000014    9.03859041
     The local contribution  to forces
     atom    1 type  1   force =     0.00005125   -0.00001803    9.10183074
     atom    2 type  1   force =     0.00005791   -0.00002187    3.02737175
     atom    3 type  1   force =     0.00005785   -0.00001302   -3.02719494
     atom    4 type  1   force =     0.00005736   -0.00002303   -9.10155828
     atom    5 type  1   force =     0.00005518   -0.00000352    9.10154446
     atom    6 type  1   force =     0.00010287   -0.00001645    3.02711929
     atom    7 type  1   force =     0.00005304   -0.00000943   -3.02733954
     atom    8 type  1   force =     0.00010409   -0.00001410   -9.10175394
     atom    9 type  1   force =     0.00005606   -0.00001755    9.10154082
     atom   10 type  1   force =     0.00005867   -0.00002129    3.02720154
     atom   11 type  1   force =     0.00005872   -0.00000993   -3.02734075
     atom   12 type  1   force =     0.00005812   -0.00002245   -9.10178561
     atom   13 type  1   force =     0.00005999   -0.00000304    9.10183256
     atom   14 type  1   force =     0.00010363   -0.00001587    3.02737861
     atom   15 type  1   force =     0.00005391   -0.00000634   -3.02719312
     atom   16 type  1   force =     0.00010485   -0.00001293   -9.10168423
     The core correction contribution to forces
     atom    1 type  1   force =     0.00000000    0.00000000    0.00000000
     atom    2 type  1   force =     0.00000000    0.00000000    0.00000000
     atom    3 type  1   force =     0.00000000    0.00000000    0.00000000
     atom    4 type  1   force =     0.00000000    0.00000000    0.00000000
     atom    5 type  1   force =     0.00000000    0.00000000    0.00000000
     atom    6 type  1   force =     0.00000000    0.00000000    0.00000000
     atom    7 type  1   force =     0.00000000    0.00000000    0.00000000
     atom    8 type  1   force =     0.00000000    0.00000000    0.00000000
     atom    9 type  1   force =     0.00000000    0.00000000    0.00000000
     atom   10 type  1   force =     0.00000000    0.00000000    0.00000000
     atom   11 type  1   force =     0.00000000    0.00000000    0.00000000
     atom   12 type  1   force =     0.00000000    0.00000000    0.00000000
     atom   13 type  1   force =     0.00000000    0.00000000    0.00000000
     atom   14 type  1   force =     0.00000000    0.00000000    0.00000000
     atom   15 type  1   force =     0.00000000    0.00000000    0.00000000
     atom   16 type  1   force =     0.00000000    0.00000000    0.00000000
     The Hubbard contrib.    to forces
     atom    1 type  1   force =     0.00000000    0.00000000    0.00000000
     atom    2 type  1   force =     0.00000000    0.00000000    0.00000000
     atom    3 type  1   force =     0.00000000    0.00000000    0.00000000
     atom    4 type  1   force =     0.00000000    0.00000000    0.00000000
     atom    5 type  1   force =     0.00000000    0.00000000    0.00000000
     atom    6 type  1   force =     0.00000000    0.00000000    0.00000000
     atom    7 type  1   force =     0.00000000    0.00000000    0.00000000
     atom    8 type  1   force =     0.00000000    0.00000000    0.00000000
     atom    9 type  1   force =     0.00000000    0.00000000    0.00000000
     atom   10 type  1   force =     0.00000000    0.00000000    0.00000000
     atom   11 type  1   force =     0.00000000    0.00000000    0.00000000
     atom   12 type  1   force =     0.00000000    0.00000000    0.00000000
     atom   13 type  1   force =     0.00000000    0.00000000    0.00000000
     atom   14 type  1   force =     0.00000000    0.00000000    0.00000000
     atom   15 type  1   force =     0.00000000    0.00000000    0.00000000
     atom   16 type  1   force =     0.00000000    0.00000000    0.00000000
     The SCF correction term to forces
     atom    1 type  1   force =     0.00000000   -0.00000000   -0.00000091
     atom    2 type  1   force =     0.00000000   -0.00000000   -0.00000061
     atom    3 type  1   force =     0.00000001    0.00000004    0.00000092
     atom    4 type  1   force =     0.00000000    0.00000000    0.00000111
     atom    5 type  1   force =    -0.00000002   -0.00000001   -0.00000100
     atom    6 type  1   force =    -0.00000000    0.00000000   -0.00000062
     atom    7 type  1   force =     0.00000001   -0.00000003    0.00000093
     atom    8 type  1   force =     0.00000000    0.00000000    0.00000126
     atom    9 type  1   force =     0.00000002    0.00000001   -0.00000100
     atom   10 type  1   force =     0.00000000    0.00000000   -0.00000062
     atom   11 type  1   force =    -0.00000001    0.00000003    0.00000093
     atom   12 type  1   force =    -0.00000000    0.00000000    0.00000128
     atom   13 type  1   force =    -0.00000000    0.00000000   -0.00000091
     atom   14 type  1   force =    -0.00000000   -0.00000000   -0.00000060
     atom   15 type  1   force =    -0.00000001   -0.00000004    0.00000092
     atom   16 type  1   force =    -0.00000000   -0.00000000    0.00000133

     Total force =     0.000159     Total SCF correction =     0.000004
     Energy error            =      6.2E-06 Ry
     Gradient error          =      5.4E-05 Ry/Bohr

     bfgs converged in  10 scf cycles and   9 bfgs steps
     (criteria: energy <  1.0E-05 Ry, force <  3.9E-04 Ry/Bohr)

     End of BFGS Geometry Optimization

     Final energy             =    -240.5511837436 Ry

     File ./Li/Lithium.bfgs deleted, as requested
Begin final coordinates

ATOMIC_POSITIONS (angstrom)
Li               0.9916111512        1.4024032944       20.0151683776
Li               1.9832882700        2.8047934300       22.3533023480
Li               0.9916594059        1.4023677261       24.7766328593
Li               1.9832882800        2.8047934500       27.1146752594
Li               0.0000285027        4.2072094469       20.0153093415
Li               0.9916443500        5.6095863900       22.3534029488
Li              -0.0000144541        4.2071650152       24.7766867972
Li               0.9916443300        5.6095863500       27.1147723789
Li               3.9665481173        1.4023770231       20.0153094015
Li               4.9582206700        2.8047934200       22.3533704377
Li               3.9665910641        1.4024214248       24.7766868172
Li               4.9582206800        2.8047934400       27.1147843271
Li               2.9749654688        4.2071831756       20.0151683476
Li               3.9665767500        5.6095863800       22.3533003699
Li               2.9749172041        4.2072187139       24.7766328293
Li               3.9665767300        5.6095863300       27.1147412157
End final coordinates

     Writing all to output data dir ./Li/Lithium.save/ :
     XML data file

     General routines

     Parallel routines

     PAW routines

     Environ routines

   This run was terminated on:  11:26:56   2Jan2025

   JOB DONE.