     Program PWSCF v.7.4 starts on 25Dec2024 at 22:21:52

     Reading input from espresso.pwi
Warning: card &FCP ignored
Warning: card / ignored
Warning: card &RISM ignored
Warning: card / ignored

     Current dimensions of program PWSCF are:
     Max number of different atomic species (ntypx) = 10
     Max number of k-points (npk) =  40000
     Max angular momentum in pseudopotentials (lmaxx) =  4

     IMPORTANT: XC functional enforced from input :
     Exchange-correlation= PBE
                           (   1   4   3   4   0   0   0)
     Any further DFT definition will be discarded
     Please, verify this is what you really want

     Found identity + ( -0.5000 -0.5000 -0.5000) symmetry
     This is a supercell, fractional translations are disabled
     Message from routine setup:
     using ibrav=0 with symmetry is DISCOURAGED, use correct ibrav instead

     K-points division:     npool     =      12
     R & G space division:  proc/nbgrp/npool/nimage =      16
     Subspace diagonalization in iterative solution of the eigenvalue problem:
     a serial algorithm will be used

     Using Slab Decomposition

     bravais-lattice index     =            0
     lattice parameter (alat)  =       6.5007  a.u.
     unit-cell volume          =     274.7084 (a.u.)^3
     number of atoms/cell      =            2
     number of atomic types    =            1
     number of electrons       =         6.00
     number of Kohn-Sham states=            7
     kinetic-energy cutoff     =      80.0000  Ry
     charge density cutoff     =     800.0000  Ry
     scf convergence threshold =      1.0E-14
     mixing beta               =       0.8000
     number of iterations used =            8  plain     mixing
     energy convergence thresh.=      1.0E-10
     force convergence thresh. =      1.0E-10
     press convergence thresh. =      1.0E-01
     Exchange-correlation= PBE
                           (   1   4   3   4   0   0   0)
     nstep                     =          999

     celldm(1)=   6.500658  celldm(2)=   0.000000  celldm(3)=   0.000000
     celldm(4)=   0.000000  celldm(5)=   0.000000  celldm(6)=   0.000000

     crystal axes: (cart. coord. in units of alat)
               a(1) = (   1.000000   0.000000   0.000000 )
               a(2) = (   0.000000   1.000000   0.000000 )
               a(3) = (   0.000000   0.000000   1.000000 )

     reciprocal axes: (cart. coord. in units 2 pi/alat)
               b(1) = (  1.000000  0.000000  0.000000 )
               b(2) = (  0.000000  1.000000  0.000000 )
               b(3) = (  0.000000  0.000000  1.000000 )

     PseudoPot. # 1 for Li read from file:
     /home/ba3g18/Repos/Pseudopotentials/pslibrary.1.0.0/pbe/PSEUDOPOTENTIALS/Li.pbe-sl-kjpaw_psl.1.0.0.UPF
     MD5 check sum: 3f4d2cafebb47c6c3aa8ed472e6f074d
     Pseudo is Projector augmented-wave, Zval =  3.0
     Generated using 'atomic' code by A. Dal Corso  v.7.4
     Shape of augmentation charge: PSQ
     Using radial grid of 1017 points,  4 beta functions with:
                l(1) =   0
                l(2) =   0
                l(3) =   1
                l(4) =   1
     Q(r) pseudized with 0 coefficients

     atomic species   valence    mass     pseudopotential
     Li                3.00     6.94000     Li( 1.00)

     48 Sym. Ops., with inversion, found

                                    s                        frac. trans.

      isym =  1     identity

 cryst.   s( 1) = (     1          0          0      )
                  (     0          1          0      )
                  (     0          0          1      )

 cart.    s( 1) = (  1.0000000  0.0000000  0.0000000 )
                  (  0.0000000  1.0000000  0.0000000 )
                  (  0.0000000  0.0000000  1.0000000 )

      isym =  2     180 deg rotation - cart. axis [0,0,1]

[...]

 cryst.   s(10) = (     0          0         -1      )
                  (     0         -1          0      )
                  (    -1          0          0      )

 cart.    s(10) = (  0.0000000  0.0000000 -1.0000000 )
                  (  0.0000000 -1.0000000  0.0000000 )
                  ( -1.0000000  0.0000000  0.0000000 )

[...]

      isym = 25     inversion

[...]

      isym = 26     inv. 180 deg rotation - cart. axis [0,0,1]

[...]

   Cartesian axes

     site n.     atom                  positions (alat units)
         1        Li     tau(   1) = (   0.0000000   0.0000000   0.0000000  )
         2        Li     tau(   2) = (   0.5000000   0.5000000   0.5000000  )

   Crystallographic axes

     site n.     atom                  positions (cryst. coord.)
         1        Li     tau(   1) = (  0.0000000  0.0000000  0.0000000  )
         2        Li     tau(   2) = (  0.5000000  0.5000000  0.5000000  )

     number of k points=   220  Marzari-Vanderbilt smearing, width (Ry)=  0.0100
                       cart. coord. in units 2pi/alat
        k(    1) = (   0.0000000   0.0000000   0.0000000), wk =   0.0002916
        k(    2) = (   0.0000000   0.0000000   0.0526316), wk =   0.0017495
        k(    3) = (   0.0000000   0.0000000   0.1052632), wk =   0.0017495
        k(    4) = (   0.0000000   0.0000000   0.1578947), wk =   0.0017495
        k(    5) = (   0.0000000   0.0000000   0.2105263), wk =   0.0017495
        k(    6) = (   0.0000000   0.0000000   0.2631579), wk =   0.0017495
        k(    7) = (   0.0000000   0.0000000   0.3157895), wk =   0.0017495
        k(    8) = (   0.0000000   0.0000000   0.3684211), wk =   0.0017495
        k(    9) = (   0.0000000   0.0000000   0.4210526), wk =   0.0017495
        k(   10) = (   0.0000000   0.0000000   0.4736842), wk =   0.0017495
        k(   11) = (   0.0000000   0.0526316   0.0526316), wk =   0.0034991
        k(   12) = (   0.0000000   0.0526316   0.1052632), wk =   0.0069981
        k(   13) = (   0.0000000   0.0526316   0.1578947), wk =   0.0069981
        k(   14) = (   0.0000000   0.0526316   0.2105263), wk =   0.0069981
        k(   15) = (   0.0000000   0.0526316   0.2631579), wk =   0.0069981
        k(   16) = (   0.0000000   0.0526316   0.3157895), wk =   0.0069981
        k(   17) = (   0.0000000   0.0526316   0.3684211), wk =   0.0069981
        k(   18) = (   0.0000000   0.0526316   0.4210526), wk =   0.0069981
        k(   19) = (   0.0000000   0.0526316   0.4736842), wk =   0.0069981
        k(   20) = (   0.0000000   0.1052632   0.1052632), wk =   0.0034991
        k(   21) = (   0.0000000   0.1052632   0.1578947), wk =   0.0069981
        k(   22) = (   0.0000000   0.1052632   0.2105263), wk =   0.0069981
        k(   23) = (   0.0000000   0.1052632   0.2631579), wk =   0.0069981
        k(   24) = (   0.0000000   0.1052632   0.3157895), wk =   0.0069981
        k(   25) = (   0.0000000   0.1052632   0.3684211), wk =   0.0069981
        k(   26) = (   0.0000000   0.1052632   0.4210526), wk =   0.0069981
        k(   27) = (   0.0000000   0.1052632   0.4736842), wk =   0.0069981
        k(   28) = (   0.0000000   0.1578947   0.1578947), wk =   0.0034991
        k(   29) = (   0.0000000   0.1578947   0.2105263), wk =   0.0069981
        k(   30) = (   0.0000000   0.1578947   0.2631579), wk =   0.0069981
        k(   31) = (   0.0000000   0.1578947   0.3157895), wk =   0.0069981
        k(   32) = (   0.0000000   0.1578947   0.3684211), wk =   0.0069981
        k(   33) = (   0.0000000   0.1578947   0.4210526), wk =   0.0069981
        k(   34) = (   0.0000000   0.1578947   0.4736842), wk =   0.0069981
        k(   35) = (   0.0000000   0.2105263   0.2105263), wk =   0.0034991
        k(   36) = (   0.0000000   0.2105263   0.2631579), wk =   0.0069981
        k(   37) = (   0.0000000   0.2105263   0.3157895), wk =   0.0069981
        k(   38) = (   0.0000000   0.2105263   0.3684211), wk =   0.0069981
        k(   39) = (   0.0000000   0.2105263   0.4210526), wk =   0.0069981
        k(   40) = (   0.0000000   0.2105263   0.4736842), wk =   0.0069981
        k(   41) = (   0.0000000   0.2631579   0.2631579), wk =   0.0034991
        k(   42) = (   0.0000000   0.2631579   0.3157895), wk =   0.0069981
        k(   43) = (   0.0000000   0.2631579   0.3684211), wk =   0.0069981
        k(   44) = (   0.0000000   0.2631579   0.4210526), wk =   0.0069981
        k(   45) = (   0.0000000   0.2631579   0.4736842), wk =   0.0069981
        k(   46) = (   0.0000000   0.3157895   0.3157895), wk =   0.0034991
        k(   47) = (   0.0000000   0.3157895   0.3684211), wk =   0.0069981
        k(   48) = (   0.0000000   0.3157895   0.4210526), wk =   0.0069981
        k(   49) = (   0.0000000   0.3157895   0.4736842), wk =   0.0069981
        k(   50) = (   0.0000000   0.3684211   0.3684211), wk =   0.0034991
        k(   51) = (   0.0000000   0.3684211   0.4210526), wk =   0.0069981
        k(   52) = (   0.0000000   0.3684211   0.4736842), wk =   0.0069981
        k(   53) = (   0.0000000   0.4210526   0.4210526), wk =   0.0034991
        k(   54) = (   0.0000000   0.4210526   0.4736842), wk =   0.0069981
        k(   55) = (   0.0000000   0.4736842   0.4736842), wk =   0.0034991
        k(   56) = (   0.0526316   0.0526316   0.0526316), wk =   0.0023327
        k(   57) = (   0.0526316   0.0526316   0.1052632), wk =   0.0069981
        k(   58) = (   0.0526316   0.0526316   0.1578947), wk =   0.0069981
        k(   59) = (   0.0526316   0.0526316   0.2105263), wk =   0.0069981
        k(   60) = (   0.0526316   0.0526316   0.2631579), wk =   0.0069981
[...]
        k(  206) = (   0.3157895   0.3684211   0.4210526), wk =   0.0139962
        k(  207) = (   0.3157895   0.3684211   0.4736842), wk =   0.0139962
        k(  208) = (   0.3157895   0.4210526   0.4210526), wk =   0.0069981
        k(  209) = (   0.3157895   0.4210526   0.4736842), wk =   0.0139962
        k(  210) = (   0.3157895   0.4736842   0.4736842), wk =   0.0069981
        k(  211) = (   0.3684211   0.3684211   0.3684211), wk =   0.0023327
        k(  212) = (   0.3684211   0.3684211   0.4210526), wk =   0.0069981
        k(  213) = (   0.3684211   0.3684211   0.4736842), wk =   0.0069981
        k(  214) = (   0.3684211   0.4210526   0.4210526), wk =   0.0069981
        k(  215) = (   0.3684211   0.4210526   0.4736842), wk =   0.0139962
        k(  216) = (   0.3684211   0.4736842   0.4736842), wk =   0.0069981
        k(  217) = (   0.4210526   0.4210526   0.4210526), wk =   0.0023327
        k(  218) = (   0.4210526   0.4210526   0.4736842), wk =   0.0069981
        k(  219) = (   0.4210526   0.4736842   0.4736842), wk =   0.0069981
        k(  220) = (   0.4736842   0.4736842   0.4736842), wk =   0.0023327

                       cryst. coord.
        k(    1) = (   0.0000000   0.0000000   0.0000000), wk =   0.0002916
        k(    2) = (   0.0000000   0.0000000   0.0526316), wk =   0.0017495
        k(    3) = (   0.0000000   0.0000000   0.1052632), wk =   0.0017495
        k(    4) = (   0.0000000   0.0000000   0.1578947), wk =   0.0017495
        k(    5) = (   0.0000000   0.0000000   0.2105263), wk =   0.0017495
        k(    6) = (   0.0000000   0.0000000   0.2631579), wk =   0.0017495
        k(    7) = (   0.0000000   0.0000000   0.3157895), wk =   0.0017495
[...]
        k(   17) = (  -0.0000000   0.0527117   0.3689819), wk =   0.0069981
        k(   18) = (  -0.0000000   0.0527117   0.4216936), wk =   0.0069981
        k(   19) = (  -0.0000000   0.0527117   0.4744053), wk =   0.0069981
        k(   20) = (  -0.0000000   0.1054234   0.1054234), wk =   0.0034991
        k(   21) = (  -0.0000000   0.1054234   0.1581351), wk =   0.0069981
        k(   22) = (  -0.0000000   0.1054234   0.2108468), wk =   0.0069981
        k(   23) = (  -0.0000000   0.1054234   0.2635585), wk =   0.0069981
        k(   24) = (  -0.0000000   0.1054234   0.3162702), wk =   0.0069981
        k(   25) = (  -0.0000000   0.1054234   0.3689819), wk =   0.0069981
        k(   26) = (  -0.0000000   0.1054234   0.4216936), wk =   0.0069981
        k(   27) = (  -0.0000000   0.1054234   0.4744053), wk =   0.0069981
        k(   28) = (  -0.0000000   0.1581351   0.1581351), wk =   0.0034991
        k(   29) = (  -0.0000000   0.1581351   0.2108468), wk =   0.0069981
        k(   30) = (  -0.0000000   0.1581351   0.2635585), wk =   0.0069981
        k(   31) = (  -0.0000000   0.1581351   0.3162702), wk =   0.0069981
        k(   32) = (  -0.0000000   0.1581351   0.3689819), wk =   0.0069981
        k(   33) = (  -0.0000000   0.1581351   0.4216936), wk =   0.0069981
        k(   34) = (  -0.0000000   0.1581351   0.4744053), wk =   0.0069981
        k(   35) = (  -0.0000000   0.2108468   0.2108468), wk =   0.0034991
        k(   36) = (  -0.0000000   0.2108468   0.2635585), wk =   0.0069981
        k(   37) = (  -0.0000000   0.2108468   0.3162702), wk =   0.0069981
        k(   38) = (  -0.0000000   0.2108468   0.3689819), wk =   0.0069981
        k(   39) = (  -0.0000000   0.2108468   0.4216936), wk =   0.0069981
        k(   40) = (  -0.0000000   0.2108468   0.4744053), wk =   0.0069981
        k(   41) = (  -0.0000000   0.2635585   0.2635585), wk =   0.0034991
        k(   42) = (  -0.0000000   0.2635585   0.3162702), wk =   0.0069981
        k(   43) = (  -0.0000000   0.2635585   0.3689819), wk =   0.0069981
        k(   44) = (  -0.0000000   0.2635585   0.4216936), wk =   0.0069981
        k(   45) = (  -0.0000000   0.2635585   0.4744053), wk =   0.0069981
        k(   46) = (  -0.0000000   0.3162702   0.3162702), wk =   0.0034991
        k(   47) = (  -0.0000000   0.3162702   0.3689819), wk =   0.0069981
        k(   48) = (  -0.0000000   0.3162702   0.4216936), wk =   0.0069981
        k(   49) = (  -0.0000000   0.3162702   0.4744053), wk =   0.0069981
        k(   50) = (  -0.0000000   0.3689819   0.3689819), wk =   0.0034991
        k(   51) = (  -0.0000000   0.3689819   0.4216936), wk =   0.0069981
        k(   52) = (  -0.0000000   0.3689819   0.4744053), wk =   0.0069981
        k(   53) = (  -0.0000000   0.4216936   0.4216936), wk =   0.0034991
        k(   54) = (  -0.0000000   0.4216936   0.4744053), wk =   0.0069981
        k(   55) = (  -0.0000000   0.4744053   0.4744053), wk =   0.0034991
        k(   56) = (   0.0527117   0.0527117   0.0527117), wk =   0.0023327
        k(   57) = (   0.0527117   0.0527117   0.1054234), wk =   0.0069981
        k(   58) = (   0.0527117   0.0527117   0.1581351), wk =   0.0069981
        k(   59) = (   0.0527117   0.0527117   0.2108468), wk =   0.0069981
        k(   60) = (   0.0527117   0.0527117   0.2635585), wk =   0.0069981
[...]
        k(  206) = (   0.3162702   0.3689819   0.4216936), wk =   0.0139962
        k(  207) = (   0.3162702   0.3689819   0.4744053), wk =   0.0139962
        k(  208) = (   0.3162702   0.4216936   0.4216936), wk =   0.0069981
        k(  209) = (   0.3162702   0.4216936   0.4744053), wk =   0.0139962
        k(  210) = (   0.3162702   0.4744053   0.4744053), wk =   0.0069981
        k(  211) = (   0.3689819   0.3689819   0.3689819), wk =   0.0023327
        k(  212) = (   0.3689819   0.3689819   0.4216936), wk =   0.0069981
        k(  213) = (   0.3689819   0.3689819   0.4744053), wk =   0.0069981
        k(  214) = (   0.3689819   0.4216936   0.4216936), wk =   0.0069981
        k(  215) = (   0.3689819   0.4216936   0.4744053), wk =   0.0139962
        k(  216) = (   0.3689819   0.4744053   0.4744053), wk =   0.0069981
        k(  217) = (   0.4216936   0.4216936   0.4216936), wk =   0.0023327
        k(  218) = (   0.4216936   0.4216936   0.4744053), wk =   0.0069981
        k(  219) = (   0.4216936   0.4744053   0.4744053), wk =   0.0069981
        k(  220) = (   0.4744053   0.4744053   0.4744053), wk =   0.0023327

                       cryst. coord.
        k(    1) = (   0.0000000   0.0000000   0.0000000), wk =   0.0002916
        k(    2) = (   0.0000000   0.0000000   0.0526316), wk =   0.0017495
        k(    3) = (   0.0000000   0.0000000   0.1052632), wk =   0.0017495
        k(    4) = (   0.0000000   0.0000000   0.1578947), wk =   0.0017495
        k(    5) = (   0.0000000   0.0000000   0.2105263), wk =   0.0017495
        k(    6) = (   0.0000000   0.0000000   0.2631579), wk =   0.0017495
        k(    7) = (   0.0000000   0.0000000   0.3157895), wk =   0.0017495
        k(    8) = (   0.0000000   0.0000000   0.3684211), wk =   0.0017495
        k(    9) = (   0.0000000   0.0000000   0.4210526), wk =   0.0017495
        k(   10) = (   0.0000000   0.0000000   0.4736842), wk =   0.0017495
        k(   11) = (   0.0000000   0.0526316   0.0526316), wk =   0.0034991
        k(   12) = (   0.0000000   0.0526316   0.1052632), wk =   0.0069981
        k(   13) = (   0.0000000   0.0526316   0.1578947), wk =   0.0069981
        k(   14) = (   0.0000000   0.0526316   0.2105263), wk =   0.0069981
        k(   15) = (   0.0000000   0.0526316   0.2631579), wk =   0.0069981
        k(   16) = (   0.0000000   0.0526316   0.3157895), wk =   0.0069981
        k(   17) = (   0.0000000   0.0526316   0.3684211), wk =   0.0069981
        k(   18) = (   0.0000000   0.0526316   0.4210526), wk =   0.0069981
        k(   19) = (   0.0000000   0.0526316   0.4736842), wk =   0.0069981
        k(   20) = (   0.0000000   0.1052632   0.1052632), wk =   0.0034991
        k(   21) = (   0.0000000   0.1052632   0.1578947), wk =   0.0069981
        k(   22) = (   0.0000000   0.1052632   0.2105263), wk =   0.0069981
        k(   23) = (   0.0000000   0.1052632   0.2631579), wk =   0.0069981
        k(   24) = (   0.0000000   0.1052632   0.3157895), wk =   0.0069981
        k(   25) = (   0.0000000   0.1052632   0.3684211), wk =   0.0069981
        k(   26) = (   0.0000000   0.1052632   0.4210526), wk =   0.0069981
        k(   27) = (   0.0000000   0.1052632   0.4736842), wk =   0.0069981
        k(   28) = (   0.0000000   0.1578947   0.1578947), wk =   0.0034991
        k(   29) = (   0.0000000   0.1578947   0.2105263), wk =   0.0069981
        k(   30) = (   0.0000000   0.1578947   0.2631579), wk =   0.0069981
        k(   31) = (   0.0000000   0.1578947   0.3157895), wk =   0.0069981
        k(   32) = (   0.0000000   0.1578947   0.3684211), wk =   0.0069981
        k(   33) = (   0.0000000   0.1578947   0.4210526), wk =   0.0069981
        k(   34) = (   0.0000000   0.1578947   0.4736842), wk =   0.0069981
        k(   35) = (   0.0000000   0.2105263   0.2105263), wk =   0.0034991
        k(   36) = (   0.0000000   0.2105263   0.2631579), wk =   0.0069981
        k(   37) = (   0.0000000   0.2105263   0.3157895), wk =   0.0069981
        k(   38) = (   0.0000000   0.2105263   0.3684211), wk =   0.0069981
        k(   39) = (   0.0000000   0.2105263   0.4210526), wk =   0.0069981
        k(   40) = (   0.0000000   0.2105263   0.4736842), wk =   0.0069981
        k(   41) = (   0.0000000   0.2631579   0.2631579), wk =   0.0034991
        k(   42) = (   0.0000000   0.2631579   0.3157895), wk =   0.0069981
        k(   43) = (   0.0000000   0.2631579   0.3684211), wk =   0.0069981
        k(   44) = (   0.0000000   0.2631579   0.4210526), wk =   0.0069981
        k(   45) = (   0.0000000   0.2631579   0.4736842), wk =   0.0069981
        k(   46) = (   0.0000000   0.3157895   0.3157895), wk =   0.0034991
        k(   47) = (   0.0000000   0.3157895   0.3684211), wk =   0.0069981
        k(   48) = (   0.0000000   0.3157895   0.4210526), wk =   0.0069981
        k(   49) = (   0.0000000   0.3157895   0.4736842), wk =   0.0069981
        k(   50) = (   0.0000000   0.3684211   0.3684211), wk =   0.0034991
        k(   51) = (   0.0000000   0.3684211   0.4210526), wk =   0.0069981
        k(   52) = (   0.0000000   0.3684211   0.4736842), wk =   0.0069981
        k(   53) = (   0.0000000   0.4210526   0.4210526), wk =   0.0034991
        k(   54) = (   0.0000000   0.4210526   0.4736842), wk =   0.0069981
        k(   55) = (   0.0000000   0.4736842   0.4736842), wk =   0.0034991
        k(   56) = (   0.0526316   0.0526316   0.0526316), wk =   0.0023327
        k(   57) = (   0.0526316   0.0526316   0.1052632), wk =   0.0069981
        k(   58) = (   0.0526316   0.0526316   0.1578947), wk =   0.0069981
        k(   59) = (   0.0526316   0.0526316   0.2105263), wk =   0.0069981
        k(   60) = (   0.0526316   0.0526316   0.2631579), wk =   0.0069981
[...]
        k(  206) = (   0.3157895   0.3684211   0.4210526), wk =   0.0139962
        k(  207) = (   0.3157895   0.3684211   0.4736842), wk =   0.0139962
        k(  208) = (   0.3157895   0.4210526   0.4210526), wk =   0.0069981
        k(  209) = (   0.3157895   0.4210526   0.4736842), wk =   0.0139962
        k(  210) = (   0.3157895   0.4736842   0.4736842), wk =   0.0069981
        k(  211) = (   0.3684211   0.3684211   0.3684211), wk =   0.0023327
        k(  212) = (   0.3684211   0.3684211   0.4210526), wk =   0.0069981
        k(  213) = (   0.3684211   0.3684211   0.4736842), wk =   0.0069981
        k(  214) = (   0.3684211   0.4210526   0.4210526), wk =   0.0069981
        k(  215) = (   0.3684211   0.4210526   0.4736842), wk =   0.0139962
        k(  216) = (   0.3684211   0.4736842   0.4736842), wk =   0.0069981
        k(  217) = (   0.4210526   0.4210526   0.4210526), wk =   0.0023327
        k(  218) = (   0.4210526   0.4210526   0.4736842), wk =   0.0069981
        k(  219) = (   0.4210526   0.4736842   0.4736842), wk =   0.0069981
        k(  220) = (   0.4736842   0.4736842   0.4736842), wk =   0.0023327

     Initial potential from superposition of free atoms

     starting charge       5.9908, renormalised to       6.0000
     Starting wfcs are random
     Checking if some PAW data can be deallocated...

     Self-consistent Calculation

[...]

     c_bands:  5 eigenvalues not converged
     c_bands:  1 eigenvalues not converged
     c_bands:  1 eigenvalues not converged
     c_bands:  2 eigenvalues not converged
     ethr =  1.00E-06,  avg # of iterations = 34.3

[...]

     total energy              =     -30.08823996 Ry
     estimated scf accuracy    <          3.1E-20 Ry

     iteration # 32     ecut=    80.00 Ry     beta= 0.80
     Davidson diagonalization with overlap

     ethr =  1.00E-13,  avg # of iterations =  1.0

     End of self-consistent calculation

[...]

          k =-0.0000 0.4744 0.4744 (  3306 PWs)   bands (ev):

[...]

          k = 0.4744 0.4744 0.4744 (  3307 PWs)   bands (ev):

   -45.5791 -45.5791   3.6424   3.9975   3.9975   4.6561   4.6562

     occupation numbers
     1.0000   1.0000   0.0000   0.0000   0.0000   0.0000   0.0000

     the Fermi energy is     0.9247 ev

!    total energy              =     -30.08823996 Ry
     total all-electron energy =       -30.088256 Ry
     estimated scf accuracy    <          8.1E-22 Ry
     smearing contrib. (-TS)   =      -0.00002881 Ry
     internal energy E=F+TS    =     -30.08821115 Ry

     The total energy is F=E-TS. E is the sum of the following terms:
     one-electron contribution =     -21.14716520 Ry
     hartree contribution      =       8.16591753 Ry
     xc contribution           =      -7.19105407 Ry
     ewald contribution        =     -10.09219797 Ry
     one-center paw contrib.   =       0.17628856 Ry
      -> PAW hartree energy AE =       7.52227171 Ry
      -> PAW hartree energy PS =      -7.29981081 Ry
      -> PAW xc energy AE      =      -3.50342571 Ry
      -> PAW xc energy PS      =       3.36910909 Ry
      -> total E_H with PAW    =       8.38837843 Ry
      -> total E_XC with PAW   =      -7.32537069 Ry

     convergence has been achieved in  32 iterations

     Forces acting on atoms (cartesian axes, Ry/au):

     atom    1 type  1   force =     0.00000000    0.00000000    0.00000000
     atom    2 type  1   force =     0.00000000    0.00000000    0.00000000
     The non-local contrib.  to forces
     atom    1 type  1   force =     0.00000000    0.00000000    0.00000000
     atom    2 type  1   force =     0.00000000    0.00000000    0.00000000
     The ionic contribution  to forces
     atom    1 type  1   force =    -0.00000000   -0.00000000   -0.00000000
     atom    2 type  1   force =     0.00000000    0.00000000    0.00000000
     The local contribution  to forces
     atom    1 type  1   force =     0.00000000    0.00000000   -0.00000000
     atom    2 type  1   force =     0.00000047    0.00000047    0.00000047
     The core correction contribution to forces
     atom    1 type  1   force =     0.00000000    0.00000000    0.00000000
     atom    2 type  1   force =     0.00000000    0.00000000    0.00000000
     The Hubbard contrib.    to forces
     atom    1 type  1   force =     0.00000000    0.00000000    0.00000000
     atom    2 type  1   force =     0.00000000    0.00000000    0.00000000
     The SCF correction term to forces
     atom    1 type  1   force =     0.00000000    0.00000000   -0.00000000
     atom    2 type  1   force =    -0.00000000    0.00000000    0.00000000

     Total force =     0.000000     Total SCF correction =     0.000000

     Computing stress (Cartesian axis) and pressure

          total   stress  (Ry/bohr**3)                   (kbar)     P=       -0.00
  -0.00000002   0.00000000  -0.00000000           -0.00        0.00       -0.00
   0.00000000  -0.00000002   0.00000000            0.00       -0.00        0.00
  -0.00000000   0.00000000  -0.00000002           -0.00        0.00       -0.00

     kinetic stress (kbar)   2646.46      0.00     -0.00
                                0.00   2646.46      0.00
                               -0.00      0.00   2646.46

     local   stress (kbar)  -1127.30     -0.00      0.00
                               -0.00  -1127.30     -0.00
                                0.00     -0.00  -1127.30

     nonloc. stress (kbar)     69.65      0.00     -0.00
                                0.00     69.65      0.00
                               -0.00      0.00     69.65

     hartree stress (kbar)   1464.27     -0.00     -0.00
                               -0.00   1464.27      0.00
                               -0.00      0.00   1464.27

     exc-cor stress (kbar)  -1243.40     -0.00      0.00
                               -0.00  -1243.40     -0.00
                                0.00     -0.00  -1243.40

     corecor stress (kbar)      0.00      0.00      0.00
                                0.00      0.00      0.00
                                0.00      0.00      0.00

     ewald   stress (kbar)  -1809.68     -0.00     -0.00
                               -0.00  -1809.68      0.00
                               -0.00      0.00  -1809.68

     hubbard stress (kbar)      0.00      0.00      0.00
                                0.00      0.00      0.00
                                0.00      0.00      0.00

     DFT-D   stress (kbar)      0.00      0.00      0.00
                                0.00      0.00      0.00
                                0.00      0.00      0.00

     XDM     stress (kbar)      0.00      0.00      0.00
                                0.00      0.00      0.00
                                0.00      0.00      0.00

     dft-nl  stress (kbar)      0.00      0.00      0.00
                                0.00      0.00      0.00
                                0.00      0.00      0.00

     TS-vdW  stress (kbar)      0.00      0.00      0.00
                                0.00      0.00      0.00
                                0.00      0.00      0.00

     MDB     stress (kbar)      0.00      0.00      0.00
                                0.00      0.00      0.00
                                0.00      0.00      0.00

     3D-RISM stress (kbar)      0.00      0.00      0.00
                                0.00      0.00      0.00
                                0.00      0.00      0.00

     Message from routine punch:
     Nothing written, as per user request (disk_io='none')

     General routines

     Parallel routines

     PAW routines

   This run was terminated on:  22:22:13  25Dec2024

   JOB DONE.