     Program PWSCF v.7.4 starts on 24Jan2025 at  1:57:13

     Reading input from espresso.pwi
Warning: card &CELL ignored
Warning: card    PRESS_CONV_THR   = 0.1 ignored
Warning: card    CELL_DOFREE      = 'ALL' ignored
Warning: card / ignored
Warning: card &FCP ignored
Warning: card / ignored
Warning: card &RISM ignored
Warning: card / ignored

     Current dimensions of program PWSCF are:
     Max number of different atomic species (ntypx) = 10
     Max number of k-points (npk) =  40000
     Max angular momentum in pseudopotentials (lmaxx) =  4

     IMPORTANT: XC functional enforced from input :
     Exchange-correlation= PBE
                           (   1   4   3   4   0   0   0)
     Any further DFT definition will be discarded
     Please, verify this is what you really want

     Reading input from environ.in:
     * using ionic solvent mode
     * setting boundary derivatives method to SSCS default
     * setting electrolyte-boundary derivatives method to SSCS default

Environ Warning (1001): card EOF ignored

     K-points division:     npool     =       2
     R & G space division:  proc/nbgrp/npool/nimage =     192
     Subspace diagonalization in iterative solution of the eigenvalue problem:
     a serial algorithm will be used

     Using Slab Decomposition

     bravais-lattice index     =            8
     lattice parameter (alat)  =      11.2436  a.u.
     unit-cell volume          =   18353.5537 (a.u.)^3
     number of atoms/cell      =           24
     number of atomic types    =            1
     number of electrons       =        72.00
     number of Kohn-Sham states=           54
     kinetic-energy cutoff     =      80.0000  Ry
     charge density cutoff     =     800.0000  Ry
     scf convergence threshold =      1.0E-06
     mixing beta               =       0.2000
     number of iterations used =            8  local-TF  mixing
     energy convergence thresh.=      1.0E-05
     force convergence thresh. =      3.9E-04
     Exchange-correlation= PBE
                           (   1   4   3   4   0   0   0)
     nstep                     =          999

                                  Environ Setup Summary

          O. Andreussi, I. Dabo and N. Marzari, J. Chem. Phys. 136, 064102 (2012)
          F. Nattino, M. Truscott, N. Marzari, and O. Andreussi, J. Chem. Phys. 150, 041722 (2019)

     in publications or presentations arising from this work.

     Parameters

     compensation onset threshold      =               0.1000E+00
     static permittivity               =                    89.90
     surface tension in input (dyn/cm) =                    37.30
     surface tension in internal units =               0.4792E-04

     Solvent Boundary

     solvent mode                      =                    ionic
     derivatives method                =                   lowmem
     electrolyte derivatives method    =                   lowmem
     numerical core for derivatives    =                      fft
     switching function adopted        =                     SCCS
     density limit for vacuum region   =               0.5000E-02
     density limit for bulk solvent    =               0.1000E-03
     soft-sphere radius mode           =                    bondi
     soft-sphere softness              =                     0.50
     alpha                             =                     1.32

     Electrostatic Setup

     electrostatic problem to solve    =                    modpb
     numerical solver adopted          =                   newton
     type of auxiliary density adopted =                     none
     numerical core for poisson        =                      fft
     adopting a nested solver scheme
     inner solver                      =                       cg
     inner core                        =                      fft
     type of pbc corrections           =                parabolic
     numerical core for corrections    =                      1da

     >>>>> Grand-Canonical SCF is activated <<<<<
     Initial Total Charge  =     0.000000 e
     Target Fermi Energy   =    -1.654000 eV
     Thr. of Fermi Energy  =     0.001000 eV
     Wave-shift of Kerker  =     0.400000 bohr^-1
     Wave-shift of Hartree =     1.500000 bohr^-1
     Mixing Rate of Fermi  =     0.050000

     celldm(1)=  11.243615  celldm(2)=   1.632993  celldm(3)=   7.907113
     celldm(4)=   0.000000  celldm(5)=   0.000000  celldm(6)=   0.000000

     crystal axes: (cart. coord. in units of alat)
               a(1) = (   1.000000   0.000000   0.000000 )
               a(2) = (   0.000000   1.632993   0.000000 )
               a(3) = (   0.000000   0.000000   7.907113 )

     reciprocal axes: (cart. coord. in units 2 pi/alat)
               b(1) = (  1.000000  0.000000  0.000000 )
               b(2) = (  0.000000  0.612372  0.000000 )
               b(3) = (  0.000000  0.000000  0.126468 )

     PseudoPot. # 1 for Li read from file:
     /work/e89/e89/ba3g18/Repos/Pseudopotentials/Pslibrary/Li.pbe-sl-kjpaw_psl.1.0.0.UPF
     MD5 check sum: 3f4d2cafebb47c6c3aa8ed472e6f074d
     Pseudo is Projector augmented-wave, Zval =  3.0
     Generated using 'atomic' code by A. Dal Corso  v.7.4
     Shape of augmentation charge: PSQ
     Using radial grid of 1017 points,  4 beta functions with:
                l(1) =   0
                l(2) =   0
                l(3) =   1
                l(4) =   1
     Q(r) pseudized with 0 coefficients

     atomic species   valence    mass     pseudopotential
     Li                3.00     6.94000     Li( 1.00)

      2 Sym. Ops. (no inversion) found

                                    s                        frac. trans.

      isym =  1     identity

 cryst.   s( 1) = (     1          0          0      )
                  (     0          1          0      )
                  (     0          0          1      )

 cart.    s( 1) = (  1.0000000  0.0000000  0.0000000 )
                  (  0.0000000  1.0000000  0.0000000 )
                  (  0.0000000  0.0000000  1.0000000 )

      isym =  2     inv. 180 deg rotation - cart. axis [0,1,0]

 cryst.   s( 2) = (     1          0          0      )
                  (     0         -1          0      )
                  (     0          0          1      )

 cart.    s( 2) = (  1.0000000  0.0000000  0.0000000 )
                  (  0.0000000 -1.0000000  0.0000000 )
                  (  0.0000000  0.0000000  1.0000000 )

     point group C_s (m)
     there are  2 classes
     the character table:

       E     s
A'     1.00  1.00
A''    1.00 -1.00

     the symmetry operations in each class and the name of the first element:

     E        1
          identity
     s        2
          inv. 180 deg rotation - cart. axis [0,1,0]

   Cartesian axes

     site n.     atom                  positions (alat units)
         1        Li     tau(   1) = (   0.4588978   0.8164966   4.4933523  )
         2        Li     tau(   2) = (   0.2074469   0.4078452   3.4136576  )
         3        Li     tau(   3) = (   0.4589735   0.8164966   3.5818257  )
         4        Li     tau(   4) = (   0.4598760   0.4079077   3.8658933  )
         5        Li     tau(   5) = (   0.2107534   0.8164966   4.0415828  )
         6        Li     tau(   6) = (   0.2066263   0.4082780   4.3244518  )
         7        Li     tau(   7) = (   0.4573649   1.6329931   4.4938236  )
         8        Li     tau(   8) = (   0.2074469   1.2251481   3.4136576  )
         9        Li     tau(   9) = (   0.4567660   1.6329931   3.5824184  )
        10        Li     tau(  10) = (   0.4598760   1.2250856   3.8658933  )
        11        Li     tau(  11) = (   0.2093648   1.6329931   4.0416392  )
        12        Li     tau(  12) = (   0.2066263   1.2247153   4.3244518  )
        13        Li     tau(  13) = (   0.9583340   0.8164966   4.4933295  )
        14        Li     tau(  14) = (   0.7075243   0.4078347   3.4136434  )
        15        Li     tau(  15) = (   0.9590311   0.8164966   3.5819065  )
        16        Li     tau(  16) = (   0.9599510   0.4080900   3.8658746  )
        17        Li     tau(  17) = (   0.7109853   0.8164966   4.0417840  )
        18        Li     tau(  18) = (   0.7066142   0.4085177   4.3244834  )
        19        Li     tau(  19) = (   0.9577346   1.6329931   4.4938316  )
        20        Li     tau(  20) = (   0.7075243   1.2251585   3.4136434  )
        21        Li     tau(  21) = (   0.9567151   1.6329931   3.5823034  )
        22        Li     tau(  22) = (   0.9599510   1.2249033   3.8658746  )
        23        Li     tau(  23) = (   0.7090025   1.6329931   4.0415130  )
        24        Li     tau(  24) = (   0.7066142   1.2244756   4.3244834  )

   Crystallographic axes

     site n.     atom                  positions (cryst. coord.)
         1        Li     tau(   1) = (  0.4588978  0.5000001  0.5682671  )
         2        Li     tau(   2) = (  0.2074469  0.2497532  0.4317199  )
         3        Li     tau(   3) = (  0.4589735  0.5000001  0.4529878  )
         4        Li     tau(   4) = (  0.4598760  0.2497915  0.4889134  )
         5        Li     tau(   5) = (  0.2107534  0.5000001  0.5111325  )
         6        Li     tau(   6) = (  0.2066263  0.2500182  0.5469065  )
         7        Li     tau(   7) = (  0.4573649  1.0000001  0.5683267  )
         8        Li     tau(   8) = (  0.2074469  0.7502470  0.4317199  )
         9        Li     tau(   9) = (  0.4567660  1.0000001  0.4530628  )
        10        Li     tau(  10) = (  0.4598760  0.7502087  0.4889134  )
        11        Li     tau(  11) = (  0.2093648  1.0000001  0.5111397  )
        12        Li     tau(  12) = (  0.2066263  0.7499820  0.5469065  )
        13        Li     tau(  13) = (  0.9583340  0.5000001  0.5682642  )
        14        Li     tau(  14) = (  0.7075243  0.2497468  0.4317180  )
        15        Li     tau(  15) = (  0.9590311  0.5000001  0.4529980  )
        16        Li     tau(  16) = (  0.9599510  0.2499031  0.4889110  )
        17        Li     tau(  17) = (  0.7109853  0.5000001  0.5111580  )
        18        Li     tau(  18) = (  0.7066142  0.2501650  0.5469105  )
        19        Li     tau(  19) = (  0.9577346  1.0000001  0.5683277  )
        20        Li     tau(  20) = (  0.7075243  0.7502534  0.4317180  )
        21        Li     tau(  21) = (  0.9567151  1.0000001  0.4530482  )
        22        Li     tau(  22) = (  0.9599510  0.7500971  0.4889110  )
        23        Li     tau(  23) = (  0.7090025  1.0000001  0.5111237  )
        24        Li     tau(  24) = (  0.7066142  0.7498352  0.5469105  )

     number of k points=    24  Marzari-Vanderbilt smearing, width (Ry)=  0.0100
                       cart. coord. in units 2pi/alat
        k(    1) = (   0.0000000   0.0000000   0.0000000), wk =   0.0259740
        k(    2) = (   0.0000000   0.0874818   0.0000000), wk =   0.0519481
        k(    3) = (   0.0000000   0.1749636   0.0000000), wk =   0.0519481
        k(    4) = (   0.0000000   0.2624454   0.0000000), wk =   0.0519481
        k(    5) = (   0.0909091   0.0000000   0.0000000), wk =   0.0519481
        k(    6) = (   0.0909091   0.0874818   0.0000000), wk =   0.1038961
[...]
     atom    8 type  1   force =     0.00000628    0.00017796    0.07294670
     atom    9 type  1   force =     0.00001677   -0.00000001    0.10000753
     atom   10 type  1   force =     0.00000236    0.00002391    0.01717641
     atom   11 type  1   force =    -0.00000207   -0.00000000   -0.01717409
     atom   12 type  1   force =     0.00000721   -0.00003638   -0.09991896
     atom   13 type  1   force =    -0.00003474    0.00000007   -0.07278377
     atom   14 type  1   force =     0.00000188   -0.00017608    0.07295051
     atom   15 type  1   force =    -0.00001894   -0.00000003    0.09988952
     atom   16 type  1   force =     0.00000133   -0.00002445    0.01717944
     atom   17 type  1   force =     0.00000139    0.00000000   -0.01710773
     atom   18 type  1   force =     0.00001590    0.00006428   -0.09991825
     atom   19 type  1   force =     0.00001428    0.00000005   -0.07302357
     atom   20 type  1   force =     0.00000188    0.00017621    0.07295054
     atom   21 type  1   force =     0.00001204   -0.00000001    0.10001743
     atom   22 type  1   force =     0.00000133    0.00002445    0.01717945
     atom   23 type  1   force =     0.00000131   -0.00000000   -0.01715256
     atom   24 type  1   force =     0.00001590   -0.00006432   -0.09991823

     Forces acting on atoms (cartesian axes, Ry/au):

     atom    1 type  1   force =    -0.00003379    0.00000000   -0.00005527
     atom    2 type  1   force =    -0.00006204    0.00003670    0.00002825
     atom    3 type  1   force =     0.00003752    0.00000000   -0.00002942
     atom    4 type  1   force =    -0.00002771   -0.00000722    0.00008546
     atom    5 type  1   force =     0.00017871    0.00000000    0.00004485
     atom    6 type  1   force =    -0.00003943    0.00009340   -0.00009989
     atom    7 type  1   force =     0.00007764    0.00000000   -0.00000807
     atom    8 type  1   force =    -0.00006204   -0.00003670    0.00002825
     atom    9 type  1   force =    -0.00010633    0.00000000    0.00019391
     atom   10 type  1   force =    -0.00002771    0.00000722    0.00008546
     atom   11 type  1   force =     0.00011029    0.00000000   -0.00017608
     atom   12 type  1   force =    -0.00003943   -0.00009340   -0.00009989
     atom   13 type  1   force =     0.00010159    0.00000000   -0.00005041
     atom   14 type  1   force =    -0.00003884    0.00003944    0.00002479
     atom   15 type  1   force =     0.00002494    0.00000000   -0.00003943
     atom   16 type  1   force =    -0.00000565   -0.00000472    0.00007824
     atom   17 type  1   force =     0.00016648    0.00000000   -0.00001121
     atom   18 type  1   force =    -0.00004362    0.00000496   -0.00009337
     atom   19 type  1   force =    -0.00011350    0.00000000   -0.00001432
     atom   20 type  1   force =    -0.00003884   -0.00003944    0.00002479
     atom   21 type  1   force =    -0.00009503    0.00000000    0.00019877
     atom   22 type  1   force =    -0.00000565    0.00000472    0.00007824
     atom   23 type  1   force =     0.00008604    0.00000000   -0.00010029
     atom   24 type  1   force =    -0.00004362   -0.00000496   -0.00009337
     The non-local contrib.  to forces
     atom    1 type  1   force =    -0.00015092    0.00000000    0.04013230
     atom    2 type  1   force =     0.00011423    0.00010170   -0.04015572
     atom    3 type  1   force =    -0.00009323    0.00000000   -0.02080409
     atom    4 type  1   force =    -0.00002573   -0.00009911    0.00378663
     atom    5 type  1   force =    -0.00017258    0.00000000   -0.00357404
     atom    6 type  1   force =     0.00005181    0.00013621    0.02072220
     atom    7 type  1   force =     0.00012762    0.00000000    0.04014953
     atom    8 type  1   force =     0.00011423   -0.00010170   -0.04015572
     atom    9 type  1   force =     0.00003458    0.00000000   -0.02066951
     atom   10 type  1   force =    -0.00002573    0.00009911    0.00378663
     atom   11 type  1   force =    -0.00008951    0.00000000   -0.00395126
     atom   12 type  1   force =     0.00005181   -0.00013621    0.02072220
     atom   13 type  1   force =     0.00001392    0.00000000    0.04012901
     atom   14 type  1   force =     0.00012827    0.00010799   -0.04015912
     atom   15 type  1   force =    -0.00011452    0.00000000   -0.02081514
     atom   16 type  1   force =    -0.00000590   -0.00009977    0.00377175
     atom   17 type  1   force =    -0.00018633    0.00000000   -0.00364459
     atom   18 type  1   force =     0.00004620    0.00002889    0.02073691
     atom   19 type  1   force =    -0.00009038    0.00000000    0.04017458
     atom   20 type  1   force =     0.00012827   -0.00010799   -0.04015912
     atom   21 type  1   force =     0.00006741    0.00000000   -0.02069330
     atom   22 type  1   force =    -0.00000590    0.00009977    0.00377175
     atom   23 type  1   force =    -0.00009464    0.00000000   -0.00384362
     atom   24 type  1   force =     0.00004620   -0.00002889    0.02073691
     The ionic contribution  to forces
     atom    1 type  1   force =    -0.00096107   -0.00000002    8.26537636
     atom    2 type  1   force =    -0.00081042    0.00129567   -8.26441805
     atom    3 type  1   force =     0.00052936    0.00000001   -6.01598397
     atom    4 type  1   force =    -0.00038523   -0.00131234   -1.32781543
     atom    5 type  1   force =     0.00164354   -0.00000001    1.33038307
     atom    6 type  1   force =    -0.00021975    0.00205440    6.02360611
     atom    7 type  1   force =     0.00174665    0.00000004    8.26268781
     atom    8 type  1   force =    -0.00081043   -0.00129569   -8.26441797
     atom    9 type  1   force =    -0.00102699    0.00000002   -6.03059960
     atom   10 type  1   force =    -0.00038521    0.00131231   -1.32781534
     atom   11 type  1   force =     0.00102867    0.00000005    1.32566169
     atom   12 type  1   force =    -0.00021975   -0.00205443    6.02360631
     atom   13 type  1   force =     0.00176400   -0.00000002    8.26530144
     atom   14 type  1   force =    -0.00040286    0.00141436   -8.26441834
     atom   15 type  1   force =     0.00030379    0.00000002   -6.01579000
     atom   16 type  1   force =     0.00005084   -0.00127579   -1.32814397
     atom   17 type  1   force =     0.00132552   -0.00000001    1.33085999
     atom   18 type  1   force =    -0.00042666    0.00008790    6.02362843
     atom   19 type  1   force =    -0.00206230    0.00000004    8.26379857
     atom   20 type  1   force =    -0.00040285   -0.00141438   -8.26441824
     atom   21 type  1   force =    -0.00052840    0.00000001   -6.03170366
     atom   22 type  1   force =     0.00005087    0.00127576   -1.32814388
     atom   23 type  1   force =     0.00062536    0.00000005    1.32513003
     atom   24 type  1   force =    -0.00042666   -0.00008793    6.02362863
     The local contribution  to forces
     atom    1 type  1   force =     0.00108708   -0.00004226   -8.23278961
     atom    2 type  1   force =     0.00062662   -0.00122795    8.23165494
     atom    3 type  1   force =    -0.00037538   -0.00004365    5.93686575
     atom    4 type  1   force =     0.00037556    0.00138367    1.30693927
     atom    5 type  1   force =    -0.00129282   -0.00004494   -1.30967296
     atom    6 type  1   force =     0.00011930   -0.00217709   -5.94450827
     atom    7 type  1   force =    -0.00176896   -0.00004365   -8.22977037
     atom    8 type  1   force =     0.00062894    0.00113760    8.23165131
     atom    9 type  1   force =     0.00086957   -0.00004446    5.95145689
     atom   10 type  1   force =     0.00038601   -0.00147238    1.30693684
     atom   11 type  1   force =    -0.00082687   -0.00004168   -1.30471231
     atom   12 type  1   force =     0.00012337    0.00209037   -5.94451313
     atom   13 type  1   force =    -0.00164193   -0.00004226   -8.23269524
     atom   14 type  1   force =     0.00023240   -0.00135199    8.23165167
     atom   15 type  1   force =    -0.00014539   -0.00004365    5.93667763
     atom   16 type  1   force =    -0.00005728    0.00135090    1.30727240
     atom   17 type  1   force =    -0.00097423   -0.00004494   -1.31011871
     atom   18 type  1   force =     0.00031896   -0.00021930   -5.94453948
     atom   19 type  1   force =     0.00202527   -0.00004365   -8.23096222
     atom   20 type  1   force =     0.00023530    0.00126164    8.23164744
     atom   21 type  1   force =     0.00035414   -0.00004446    5.95257950
     atom   22 type  1   force =    -0.00004683   -0.00143961    1.30726998
     atom   23 type  1   force =    -0.00044617   -0.00004168   -1.30423406
     atom   24 type  1   force =     0.00032303    0.00013258   -5.94454435
     The core correction contribution to forces
     atom    1 type  1   force =     0.00000000    0.00000000    0.00000000
     atom    2 type  1   force =     0.00000000    0.00000000    0.00000000
     atom    3 type  1   force =     0.00000000    0.00000000    0.00000000
     atom    4 type  1   force =     0.00000000    0.00000000    0.00000000
     atom    5 type  1   force =     0.00000000    0.00000000    0.00000000
     atom    6 type  1   force =     0.00000000    0.00000000    0.00000000
     atom    7 type  1   force =     0.00000000    0.00000000    0.00000000
     atom    8 type  1   force =     0.00000000    0.00000000    0.00000000
     atom    9 type  1   force =     0.00000000    0.00000000    0.00000000
     atom   10 type  1   force =     0.00000000    0.00000000    0.00000000
     atom   11 type  1   force =     0.00000000    0.00000000    0.00000000
     atom   12 type  1   force =     0.00000000    0.00000000    0.00000000
     atom   13 type  1   force =     0.00000000    0.00000000    0.00000000
     atom   14 type  1   force =     0.00000000    0.00000000    0.00000000
     atom   15 type  1   force =     0.00000000    0.00000000    0.00000000
     atom   16 type  1   force =     0.00000000    0.00000000    0.00000000
     atom   17 type  1   force =     0.00000000    0.00000000    0.00000000
     atom   18 type  1   force =     0.00000000    0.00000000    0.00000000
     atom   19 type  1   force =     0.00000000    0.00000000    0.00000000
     atom   20 type  1   force =     0.00000000    0.00000000    0.00000000
     atom   21 type  1   force =     0.00000000    0.00000000    0.00000000
     atom   22 type  1   force =     0.00000000    0.00000000    0.00000000
     atom   23 type  1   force =     0.00000000    0.00000000    0.00000000
     atom   24 type  1   force =     0.00000000    0.00000000    0.00000000
     The Hubbard contrib.    to forces
     atom    1 type  1   force =     0.00000000    0.00000000    0.00000000
     atom    2 type  1   force =     0.00000000    0.00000000    0.00000000
     atom    3 type  1   force =     0.00000000    0.00000000    0.00000000
     atom    4 type  1   force =     0.00000000    0.00000000    0.00000000
     atom    5 type  1   force =     0.00000000    0.00000000    0.00000000
     atom    6 type  1   force =     0.00000000    0.00000000    0.00000000
     atom    7 type  1   force =     0.00000000    0.00000000    0.00000000
     atom    8 type  1   force =     0.00000000    0.00000000    0.00000000
     atom    9 type  1   force =     0.00000000    0.00000000    0.00000000
     atom   10 type  1   force =     0.00000000    0.00000000    0.00000000
     atom   11 type  1   force =     0.00000000    0.00000000    0.00000000
     atom   12 type  1   force =     0.00000000    0.00000000    0.00000000
     atom   13 type  1   force =     0.00000000    0.00000000    0.00000000
     atom   14 type  1   force =     0.00000000    0.00000000    0.00000000
     atom   15 type  1   force =     0.00000000    0.00000000    0.00000000
     atom   16 type  1   force =     0.00000000    0.00000000    0.00000000
     atom   17 type  1   force =     0.00000000    0.00000000    0.00000000
     atom   18 type  1   force =     0.00000000    0.00000000    0.00000000
     atom   19 type  1   force =     0.00000000    0.00000000    0.00000000
     atom   20 type  1   force =     0.00000000    0.00000000    0.00000000
     atom   21 type  1   force =     0.00000000    0.00000000    0.00000000
     atom   22 type  1   force =     0.00000000    0.00000000    0.00000000
     atom   23 type  1   force =     0.00000000    0.00000000    0.00000000
     atom   24 type  1   force =     0.00000000    0.00000000    0.00000000
     The SCF correction term to forces
     atom    1 type  1   force =    -0.00000035    0.00000000   -0.00000171
     atom    2 type  1   force =     0.00000002   -0.00000002    0.00000228
     atom    3 type  1   force =     0.00000007    0.00000000   -0.00000116
     atom    4 type  1   force =     0.00000003    0.00000009   -0.00000012
     atom    5 type  1   force =     0.00000022    0.00000000    0.00000000
     atom    6 type  1   force =    -0.00000010    0.00000014    0.00000148
     atom    7 type  1   force =    -0.00000001    0.00000000   -0.00000170
     atom    8 type  1   force =     0.00000002    0.00000002    0.00000228
     atom    9 type  1   force =    -0.00000033   -0.00000000   -0.00000126
     atom   10 type  1   force =     0.00000003   -0.00000009   -0.00000012
     atom   11 type  1   force =     0.00000000   -0.00000000    0.00000002
     atom   12 type  1   force =    -0.00000010   -0.00000014    0.00000148
     atom   13 type  1   force =     0.00000029    0.00000000   -0.00000173
     atom   14 type  1   force =    -0.00000005    0.00000005    0.00000225
     atom   15 type  1   force =    -0.00000006    0.00000000   -0.00000131
     atom   16 type  1   force =     0.00000005    0.00000001   -0.00000009
     atom   17 type  1   force =     0.00000008    0.00000000   -0.00000005
     atom   18 type  1   force =    -0.00000011   -0.00000021    0.00000146
     atom   19 type  1   force =    -0.00000044    0.00000000   -0.00000158
     atom   20 type  1   force =    -0.00000005   -0.00000005    0.00000225
     atom   21 type  1   force =    -0.00000028   -0.00000000   -0.00000108
     atom   22 type  1   force =     0.00000005   -0.00000001   -0.00000009
     atom   23 type  1   force =     0.00000011   -0.00000000    0.00000005
     atom   24 type  1   force =    -0.00000011    0.00000021    0.00000146

     Total force =     0.000609     Total SCF correction =     0.000007
     Energy error            =      4.7E-06 Ry
     Gradient error          =      2.0E-04 Ry/Bohr

     bfgs converged in  33 scf cycles and  32 bfgs steps
     (criteria: energy <  1.0E-05 Ry, force <  3.9E-04 Ry/Bohr)

     End of BFGS Geometry Optimization

     Final energy             =    -361.0267751387 Ry

     File ./Li/Lithium.bfgs deleted, as requested
Begin final coordinates

ATOMIC_POSITIONS (angstrom)
Li               2.7245266328        4.8580445300       26.6929205527
Li               1.2449794406        2.4302294068       20.3544566581
Li               2.7244079911        4.8580445600       21.3216072533
Li               2.7220676471        2.4281422323       23.0190086234
Li               1.2230490822        4.8580445800       24.0268330098
Li               1.2455646826        2.4282764137       25.7287400696
Li               2.7295016862        9.7160883600       26.6905602364
Li               1.2449794006        7.2858597532       20.3544567181
Li               2.7391597801        9.7160883800       21.3138816435
Li               2.7220674671        7.2879469077       23.0190086634
Li               1.2334172272        9.7160883300       24.0272489379
Li               1.2455646126        7.2878126963       25.7287401495
Li               5.6982737367        4.8580445300       26.6928275089
Li               4.2196450720        2.4301086068       20.3545099288
Li               5.6993919663        4.8580445600       21.3217533529
Li               5.6967883491        2.4280475547       23.0189519289
Li               4.1981322082        4.8580445800       24.0273929817
Li               4.2206032175        2.4289416677       25.7286785645
Li               5.7061672227        9.7160883600       26.6911379616
Li               4.2196450220        7.2859805532       20.3545099988
Li               5.7140527328        9.7160883800       21.3134704068
Li               5.6967881691        7.2880415853       23.0189519689
Li               4.2087353174        9.7160883300       24.0264921294
Li               4.2206031475        7.2871474423       25.7286786445
End final coordinates

     Writing all to output data dir ./Li/Lithium.save/ :
     XML data file

     General routines

     Parallel routines

     PAW routines

     Environ routines

   This run was terminated on:   5: 3:41  24Jan2025

   JOB DONE.