     Program PWSCF v.7.4 starts on  8Jan2025 at 16:53:37
        Git branch: develop
        Last git commit: e877ff360aceba4b8d76ffc2fb1c70545fc5dd57
        Last git commit date: Sat Jan 4 12:56:15 2025 +0000
        Last git commit subject: Merge branch 'orthoU' into 'develop'

     Reading input from espresso.pwi
Warning: card &CELL ignored
Warning: card    PRESS_CONV_THR   = 0.1 ignored
Warning: card    CELL_DOFREE      = 'ALL' ignored
Warning: card / ignored
Warning: card &FCP ignored
Warning: card / ignored
Warning: card &RISM ignored
Warning: card / ignored

     Current dimensions of program PWSCF are:
     Max number of different atomic species (ntypx) = 10
     Max number of k-points (npk) =  40000
     Max angular momentum in pseudopotentials (lmaxx) =  4

     IMPORTANT: XC functional enforced from input :
     Exchange-correlation= PBE
                           (   1   4   3   4   0   0   0)
     Any further DFT definition will be discarded
     Please, verify this is what you really want

     Reading input from environ.in:
     * using ionic solvent mode
     * setting boundary derivatives method to SSCS default
     * setting electrolyte-boundary derivatives method to SSCS default

Environ Warning (1001): card EOF ignored

     K-points division:     npool     =       2
     R & G space division:  proc/nbgrp/npool/nimage =     220
     Subspace diagonalization in iterative solution of the eigenvalue problem:
     a serial algorithm will be used

     Using Slab Decomposition

     bravais-lattice index     =            8
     lattice parameter (alat)  =      18.3607  a.u.
     unit-cell volume          =   20684.8735 (a.u.)^3
     number of atoms/cell      =           44
     number of atomic types    =            1
     number of electrons       =       132.00
     number of Kohn-Sham states=           99
     kinetic-energy cutoff     =      80.0000  Ry
     charge density cutoff     =     800.0000  Ry
     scf convergence threshold =      1.0E-14
     mixing beta               =       0.2000
     number of iterations used =            8  local-TF  mixing
     Exchange-correlation= PBE
                           (   1   4   3   4   0   0   0)

                                  Environ Setup Summary

          O. Andreussi, I. Dabo and N. Marzari, J. Chem. Phys. 136, 064102 (2012)
          F. Nattino, M. Truscott, N. Marzari, and O. Andreussi, J. Chem. Phys. 150, 041722 (2019)

     in publications or presentations arising from this work.

     Parameters

     compensation onset threshold      =               0.1000E+00
     static permittivity               =                    89.90
     surface tension in input (dyn/cm) =                    37.30
     surface tension in internal units =               0.4792E-04

     Solvent Boundary

     solvent mode                      =                    ionic
     derivatives method                =                   lowmem
     electrolyte derivatives method    =                   lowmem
     numerical core for derivatives    =                      fft
     switching function adopted        =                     SCCS
     density limit for vacuum region   =               0.5000E-02
     density limit for bulk solvent    =               0.1000E-03
     soft-sphere radius mode           =                    bondi
     soft-sphere softness              =                     0.50
     alpha                             =                     1.32

     Electrostatic Setup

     electrostatic problem to solve    =                    modpb
     numerical solver adopted          =                   newton
     type of auxiliary density adopted =                     none
     numerical core for poisson        =                      fft
     adopting a nested solver scheme
     inner solver                      =                       cg
     inner core                        =                      fft
     type of pbc corrections           =                parabolic
     numerical core for corrections    =                      1da

     >>>>> Grand-Canonical SCF is activated <<<<<
     Initial Total Charge  =     0.000000 e
     Target Fermi Energy   =    -4.404000 eV
     Thr. of Fermi Energy  =     0.001000 eV
     Wave-shift of Kerker  =     0.400000 bohr^-1
     Wave-shift of Hartree =     1.500000 bohr^-1
     Mixing Rate of Fermi  =     0.050000

     celldm(1)=  18.360747  celldm(2)=   0.586302  celldm(3)=   5.699811
     celldm(4)=   0.000000  celldm(5)=   0.000000  celldm(6)=   0.000000

     crystal axes: (cart. coord. in units of alat)
               a(1) = (   1.000000   0.000000   0.000000 )
               a(2) = (   0.000000   0.586302   0.000000 )
               a(3) = (   0.000000   0.000000   5.699811 )

     reciprocal axes: (cart. coord. in units 2 pi/alat)
               b(1) = (  1.000000  0.000000  0.000000 )
               b(2) = (  0.000000  1.705606  0.000000 )
               b(3) = (  0.000000  0.000000  0.175444 )

     PseudoPot. # 1 for Li read from file:
     /home/mmm1182/Repos/Pseudopotentials/pslibrary/Li.pbe-sl-kjpaw_psl.1.0.0.UPF
     MD5 check sum: f40bb4162937df3f7c561f1969c76545
     Pseudo is Projector augmented-wave, Zval =  3.0
     Generated using 'atomic' code by A. Dal Corso  v.7.3.1
     Shape of augmentation charge: PSQ
     Using radial grid of 1017 points,  4 beta functions with:
                l(1) =   0
                l(2) =   0
                l(3) =   1
                l(4) =   1
     Q(r) pseudized with 0 coefficients

     atomic species   valence    mass     pseudopotential
     Li                3.00     6.94000     Li( 1.00)

      2 Sym. Ops. (no inversion) found

                                    s                        frac. trans.

      isym =  1     identity

 cryst.   s( 1) = (     1          0          0      )
                  (     0          1          0      )
                  (     0          0          1      )

 cart.    s( 1) = (  1.0000000  0.0000000  0.0000000 )
                  (  0.0000000  1.0000000  0.0000000 )
                  (  0.0000000  0.0000000  1.0000000 )

      isym =  2     inv. 180 deg rotation - cart. axis [1,0,0]

 cryst.   s( 2) = (    -1          0          0      )
                  (     0          1          0      )
                  (     0          0          1      )

 cart.    s( 2) = ( -1.0000000  0.0000000  0.0000000 )
                  (  0.0000000  1.0000000  0.0000000 )
                  (  0.0000000  0.0000000  1.0000000 )

     point group C_s (m)
     there are  2 classes
     the character table:

       E     s
A'     1.00  1.00
A''    1.00 -1.00

     the symmetry operations in each class and the name of the first element:

     E        1
          identity
     s        2
          inv. 180 deg rotation - cart. axis [1,0,0]

   Cartesian axes

     site n.     atom                  positions (alat units)
         1        Li     tau(   1) = (   0.5000000   0.5310738   3.7050692  )
         2        Li     tau(   2) = (   0.2500048   0.4814883   1.9947589  )
         3        Li     tau(   3) = (   0.2500045   0.0961832   2.2519977  )
         4        Li     tau(   4) = (   0.5000000   0.2200446   2.0961158  )
         5        Li     tau(   5) = (   0.0000000   0.5060878   2.2550280  )
         6        Li     tau(   6) = (   0.5000000   0.1939943   2.4198708  )
         7        Li     tau(   7) = (   0.2500059   0.3215911   2.6539423  )
         8        Li     tau(   8) = (   0.2499969   0.5870374   2.8359630  )
         9        Li     tau(   9) = (   0.2500015   0.3766821   2.3404607  )
        10        Li     tau(  10) = (   0.2499976   0.0441508   2.5380906  )
        11        Li     tau(  11) = (   0.0000000   0.4679233   2.5616202  )
        12        Li     tau(  12) = (   0.5000000   0.1484487   2.7345380  )
        13        Li     tau(  13) = (   0.5000000   0.4256724   2.8638142  )
        14        Li     tau(  14) = (   0.5000000   0.1048074   3.0458758  )
        15        Li     tau(  15) = (   0.2499965   0.5447768   3.1382103  )
        16        Li     tau(  16) = (   0.2499989   0.2324080   3.2799400  )
        17        Li     tau(  17) = (   0.2500070   0.2779484   2.9652753  )
        18        Li     tau(  18) = (   0.0000000   0.3822280   3.1617751  )
        19        Li     tau(  19) = (   0.5000000   0.0497488   3.3593741  )
        20        Li     tau(  20) = (   0.5000000   0.3302969   3.4477099  )
        21        Li     tau(  21) = (   0.2499856   0.5066212   3.4447958  )
        22        Li     tau(  22) = (   0.2501591   0.2063571   3.6036869  )
        23        Li     tau(  23) = (   1.0000000   0.5313330   3.7050414  )
        24        Li     tau(  24) = (   0.7499952   0.4814883   1.9947589  )
        25        Li     tau(  25) = (   0.7499955   0.0961832   2.2519977  )
        26        Li     tau(  26) = (   1.0000000   0.2200454   2.0961213  )
        27        Li     tau(  27) = (   0.5000000   0.5060794   2.2550054  )
        28        Li     tau(  28) = (   1.0000000   0.1940008   2.4198625  )
        29        Li     tau(  29) = (   0.7499941   0.3215911   2.6539423  )
        30        Li     tau(  30) = (   0.7500031   0.5870374   2.8359630  )
        31        Li     tau(  31) = (   0.7499985   0.3766821   2.3404607  )
        32        Li     tau(  32) = (   0.7500024   0.0441508   2.5380906  )
        33        Li     tau(  33) = (   0.5000000   0.4679322   2.5615826  )
        34        Li     tau(  34) = (   1.0000000   0.1484573   2.7345197  )
        35        Li     tau(  35) = (   1.0000000   0.4256553   2.8638735  )
        36        Li     tau(  36) = (   1.0000000   0.1048094   3.0458472  )
        37        Li     tau(  37) = (   0.7500035   0.5447768   3.1382103  )
        38        Li     tau(  38) = (   0.7500011   0.2324080   3.2799400  )
        39        Li     tau(  39) = (   0.7499930   0.2779484   2.9652753  )
        40        Li     tau(  40) = (   0.5000000   0.3822699   3.1616625  )
        41        Li     tau(  41) = (   1.0000000   0.0496945   3.3593223  )
        42        Li     tau(  42) = (   1.0000000   0.3301559   3.4478965  )
        43        Li     tau(  43) = (   0.7500144   0.5066212   3.4447958  )
        44        Li     tau(  44) = (   0.7498409   0.2063571   3.6036869  )

   Crystallographic axes

     site n.     atom                  positions (cryst. coord.)
         1        Li     tau(   1) = (  0.5000000  0.9058025  0.6500337  )
         2        Li     tau(   2) = (  0.2500048  0.8212291  0.3499693  )
         3        Li     tau(   3) = (  0.2500045  0.1640506  0.3951004  )
         4        Li     tau(   4) = (  0.5000000  0.3753092  0.3677518  )
         5        Li     tau(   5) = (  0.0000000  0.8631862  0.3956321  )
         6        Li     tau(   6) = (  0.5000000  0.3308778  0.4245528  )
         7        Li     tau(   7) = (  0.2500059  0.5485075  0.4656193  )
         8        Li     tau(   8) = (  0.2499969  1.0012544  0.4975539  )
         9        Li     tau(   9) = (  0.2500015  0.6424711  0.4106208  )
        10        Li     tau(  10) = (  0.2499976  0.0753038  0.4452938  )
[...]
     atom    7 type  1   force =    -0.00008745   -0.03493185   -4.13206828
     atom    8 type  1   force =    -0.00012884    0.03155724   -0.28345192
     atom    9 type  1   force =    -0.00008329   -0.07466282  -10.76809395
     atom   10 type  1   force =    -0.00007225    0.03216025   -6.55248568
     atom   11 type  1   force =    -0.00000001   -0.03842840   -6.09269441
     atom   12 type  1   force =    -0.00000001    0.04513931   -2.43706011
     atom   13 type  1   force =    -0.00000001   -0.03155478    0.28281296
     atom   14 type  1   force =    -0.00000001    0.03493444    4.13227905
     atom   15 type  1   force =    -0.00020999    0.03844062    6.09317627
     atom   16 type  1   force =    -0.00034890   -0.06288398    9.04089415
     atom   17 type  1   force =    -0.00017353   -0.04513797    2.43719119
     atom   18 type  1   force =     0.00000000   -0.03215352    6.55371109
     atom   19 type  1   force =    -0.00000001    0.07466133   10.76846956
     atom   20 type  1   force =    -0.00000001   -0.08634039   12.66275642
     atom   21 type  1   force =    -0.00054130    0.05629708   12.57491188
     atom   22 type  1   force =    -0.00065534   -0.02351187   15.14614907
     atom   23 type  1   force =     0.00000002    0.02466204   15.85916907
     atom   24 type  1   force =     0.00009332   -0.02469134  -15.85942845
     atom   25 type  1   force =     0.00007131    0.08634127  -12.66503206
     atom   26 type  1   force =     0.00000001    0.02349891  -15.14615957
     atom   27 type  1   force =    -0.00000000   -0.05624461  -12.57502974
     atom   28 type  1   force =     0.00000002    0.06284634   -9.04100494
     atom   29 type  1   force =     0.00008744   -0.03493183   -4.13206830
     atom   30 type  1   force =     0.00012882    0.03155724   -0.28345193
     atom   31 type  1   force =     0.00008330   -0.07466280  -10.76809396
     atom   32 type  1   force =     0.00007225    0.03216023   -6.55248569
     atom   33 type  1   force =    -0.00000000   -0.03842404   -6.09351088
     atom   34 type  1   force =     0.00000003    0.04512898   -2.43736229
     atom   35 type  1   force =     0.00000003   -0.03155052    0.28419558
     atom   36 type  1   force =     0.00000003    0.03492414    4.13176837
     atom   37 type  1   force =     0.00020998    0.03844060    6.09317628
     atom   38 type  1   force =     0.00034888   -0.06288396    9.04089413
     atom   39 type  1   force =     0.00017352   -0.04513796    2.43719120
     atom   40 type  1   force =    -0.00000001   -0.03214553    6.55121997
     atom   41 type  1   force =     0.00000004    0.07473422   10.76777326
     atom   42 type  1   force =     0.00000003   -0.08644733   12.66711153
     atom   43 type  1   force =     0.00054127    0.05629708   12.57491188
     atom   44 type  1   force =     0.00065532   -0.02351188   15.14614908
     The local contribution  to forces
     atom    1 type  1   force =     0.00000137   -0.02674496  -15.94467737
     atom    2 type  1   force =     0.00011078    0.02663379   15.94439084
     atom    3 type  1   force =     0.00007547   -0.11078168   12.80223169
     atom    4 type  1   force =     0.00000136   -0.02154417   15.33359001
     atom    5 type  1   force =    -0.00000000    0.06538136   12.70706089
     atom    6 type  1   force =     0.00000136   -0.06346985    9.11717111
     atom    7 type  1   force =     0.00009313    0.03771201    4.17340227
     atom    8 type  1   force =     0.00013105   -0.03545132    0.28357147
     atom    9 type  1   force =     0.00009047    0.08247013   10.87415756
     atom   10 type  1   force =     0.00007459   -0.03415583    6.61259376
     atom   11 type  1   force =     0.00000000    0.04225204    6.14768215
     atom   12 type  1   force =     0.00000136   -0.04612233    2.45839300
     atom   13 type  1   force =     0.00000136    0.03544856   -0.28288257
     atom   14 type  1   force =     0.00000136   -0.03771412   -4.17359008
     atom   15 type  1   force =     0.00021147   -0.04226704   -6.14813155
     atom   16 type  1   force =     0.00037361    0.06351965   -9.11718586
     atom   17 type  1   force =     0.00018101    0.04612186   -2.45849350
     atom   18 type  1   force =     0.00000000    0.03415150   -6.61379970
     atom   19 type  1   force =     0.00000136   -0.08246172  -10.87449620
     atom   20 type  1   force =     0.00000136    0.11075260  -12.79973677
     atom   21 type  1   force =     0.00057933   -0.06540229  -12.70731856
     atom   22 type  1   force =     0.00073083    0.02160154  -15.33350892
     atom   23 type  1   force =     0.00000274   -0.02658497  -15.94409618
     atom   24 type  1   force =    -0.00010804    0.02663379   15.94439084
     atom   25 type  1   force =    -0.00007275   -0.11078168   12.80223169
     atom   26 type  1   force =     0.00000273   -0.02158557   15.33355333
     atom   27 type  1   force =     0.00000135    0.06534512   12.70746674
     atom   28 type  1   force =     0.00000272   -0.06348253    9.11734208
     atom   29 type  1   force =    -0.00009041    0.03771201    4.17340227
     atom   30 type  1   force =    -0.00012834   -0.03545132    0.28357147
     atom   31 type  1   force =    -0.00008775    0.08247013   10.87415756
     atom   32 type  1   force =    -0.00007186   -0.03415583    6.61259376
     atom   33 type  1   force =     0.00000136    0.04224869    6.14850965
     atom   34 type  1   force =     0.00000272   -0.04611487    2.45871436
     atom   35 type  1   force =     0.00000272    0.03544518   -0.28428787
     atom   36 type  1   force =     0.00000272   -0.03770198   -4.17304664
     atom   37 type  1   force =    -0.00020875   -0.04226704   -6.14813155
     atom   38 type  1   force =    -0.00037090    0.06351965   -9.11718586
     atom   39 type  1   force =    -0.00017829    0.04612186   -2.45849350
     atom   40 type  1   force =     0.00000136    0.03413914   -6.61127154
     atom   41 type  1   force =     0.00000272   -0.08254558  -10.87380256
     atom   42 type  1   force =     0.00000272    0.11090834  -12.80442012
     atom   43 type  1   force =    -0.00057662   -0.06540229  -12.70731856
     atom   44 type  1   force =    -0.00072810    0.02160154  -15.33350892
     The core correction contribution to forces
     atom    1 type  1   force =     0.00000000    0.00000000    0.00000000
     atom    2 type  1   force =     0.00000000    0.00000000    0.00000000
     atom    3 type  1   force =     0.00000000    0.00000000    0.00000000
     atom    4 type  1   force =     0.00000000    0.00000000    0.00000000
     atom    5 type  1   force =     0.00000000    0.00000000    0.00000000
     atom    6 type  1   force =     0.00000000    0.00000000    0.00000000
     atom    7 type  1   force =     0.00000000    0.00000000    0.00000000
     atom    8 type  1   force =     0.00000000    0.00000000    0.00000000
     atom    9 type  1   force =     0.00000000    0.00000000    0.00000000
     atom   10 type  1   force =     0.00000000    0.00000000    0.00000000
     atom   11 type  1   force =     0.00000000    0.00000000    0.00000000
     atom   12 type  1   force =     0.00000000    0.00000000    0.00000000
     atom   13 type  1   force =     0.00000000    0.00000000    0.00000000
     atom   14 type  1   force =     0.00000000    0.00000000    0.00000000
     atom   15 type  1   force =     0.00000000    0.00000000    0.00000000
     atom   16 type  1   force =     0.00000000    0.00000000    0.00000000
     atom   17 type  1   force =     0.00000000    0.00000000    0.00000000
     atom   18 type  1   force =     0.00000000    0.00000000    0.00000000
     atom   19 type  1   force =     0.00000000    0.00000000    0.00000000
     atom   20 type  1   force =     0.00000000    0.00000000    0.00000000
     atom   21 type  1   force =     0.00000000    0.00000000    0.00000000
     atom   22 type  1   force =     0.00000000    0.00000000    0.00000000
     atom   23 type  1   force =     0.00000000    0.00000000    0.00000000
     atom   24 type  1   force =     0.00000000    0.00000000    0.00000000
     atom   25 type  1   force =     0.00000000    0.00000000    0.00000000
     atom   26 type  1   force =     0.00000000    0.00000000    0.00000000
     atom   27 type  1   force =     0.00000000    0.00000000    0.00000000
     atom   28 type  1   force =     0.00000000    0.00000000    0.00000000
     atom   29 type  1   force =     0.00000000    0.00000000    0.00000000
     atom   30 type  1   force =     0.00000000    0.00000000    0.00000000
     atom   31 type  1   force =     0.00000000    0.00000000    0.00000000
     atom   32 type  1   force =     0.00000000    0.00000000    0.00000000
     atom   33 type  1   force =     0.00000000    0.00000000    0.00000000
     atom   34 type  1   force =     0.00000000    0.00000000    0.00000000
     atom   35 type  1   force =     0.00000000    0.00000000    0.00000000
     atom   36 type  1   force =     0.00000000    0.00000000    0.00000000
     atom   37 type  1   force =     0.00000000    0.00000000    0.00000000
     atom   38 type  1   force =     0.00000000    0.00000000    0.00000000
     atom   39 type  1   force =     0.00000000    0.00000000    0.00000000
     atom   40 type  1   force =     0.00000000    0.00000000    0.00000000
     atom   41 type  1   force =     0.00000000    0.00000000    0.00000000
     atom   42 type  1   force =     0.00000000    0.00000000    0.00000000
     atom   43 type  1   force =     0.00000000    0.00000000    0.00000000
     atom   44 type  1   force =     0.00000000    0.00000000    0.00000000
     The Hubbard contrib.    to forces
     atom    1 type  1   force =     0.00000000    0.00000000    0.00000000
     atom    2 type  1   force =     0.00000000    0.00000000    0.00000000
     atom    3 type  1   force =     0.00000000    0.00000000    0.00000000
     atom    4 type  1   force =     0.00000000    0.00000000    0.00000000
     atom    5 type  1   force =     0.00000000    0.00000000    0.00000000
     atom    6 type  1   force =     0.00000000    0.00000000    0.00000000
     atom    7 type  1   force =     0.00000000    0.00000000    0.00000000
     atom    8 type  1   force =     0.00000000    0.00000000    0.00000000
     atom    9 type  1   force =     0.00000000    0.00000000    0.00000000
     atom   10 type  1   force =     0.00000000    0.00000000    0.00000000
     atom   11 type  1   force =     0.00000000    0.00000000    0.00000000
     atom   12 type  1   force =     0.00000000    0.00000000    0.00000000
     atom   13 type  1   force =     0.00000000    0.00000000    0.00000000
     atom   14 type  1   force =     0.00000000    0.00000000    0.00000000
     atom   15 type  1   force =     0.00000000    0.00000000    0.00000000
     atom   16 type  1   force =     0.00000000    0.00000000    0.00000000
     atom   17 type  1   force =     0.00000000    0.00000000    0.00000000
     atom   18 type  1   force =     0.00000000    0.00000000    0.00000000
     atom   19 type  1   force =     0.00000000    0.00000000    0.00000000
     atom   20 type  1   force =     0.00000000    0.00000000    0.00000000
     atom   21 type  1   force =     0.00000000    0.00000000    0.00000000
     atom   22 type  1   force =     0.00000000    0.00000000    0.00000000
     atom   23 type  1   force =     0.00000000    0.00000000    0.00000000
     atom   24 type  1   force =     0.00000000    0.00000000    0.00000000
     atom   25 type  1   force =     0.00000000    0.00000000    0.00000000
     atom   26 type  1   force =     0.00000000    0.00000000    0.00000000
     atom   27 type  1   force =     0.00000000    0.00000000    0.00000000
     atom   28 type  1   force =     0.00000000    0.00000000    0.00000000
     atom   29 type  1   force =     0.00000000    0.00000000    0.00000000
     atom   30 type  1   force =     0.00000000    0.00000000    0.00000000
     atom   31 type  1   force =     0.00000000    0.00000000    0.00000000
     atom   32 type  1   force =     0.00000000    0.00000000    0.00000000
     atom   33 type  1   force =     0.00000000    0.00000000    0.00000000
     atom   34 type  1   force =     0.00000000    0.00000000    0.00000000
     atom   35 type  1   force =     0.00000000    0.00000000    0.00000000
     atom   36 type  1   force =     0.00000000    0.00000000    0.00000000
     atom   37 type  1   force =     0.00000000    0.00000000    0.00000000
     atom   38 type  1   force =     0.00000000    0.00000000    0.00000000
     atom   39 type  1   force =     0.00000000    0.00000000    0.00000000
     atom   40 type  1   force =     0.00000000    0.00000000    0.00000000
     atom   41 type  1   force =     0.00000000    0.00000000    0.00000000
     atom   42 type  1   force =     0.00000000    0.00000000    0.00000000
     atom   43 type  1   force =     0.00000000    0.00000000    0.00000000
     atom   44 type  1   force =     0.00000000    0.00000000    0.00000000
     The SCF correction term to forces
     atom    1 type  1   force =     0.00000000    0.00000000   -0.00000001
     atom    2 type  1   force =    -0.00000000   -0.00000001    0.00000003
     atom    3 type  1   force =    -0.00000000    0.00000001    0.00000003
     atom    4 type  1   force =     0.00000000    0.00000001    0.00000003
     atom    5 type  1   force =     0.00000000   -0.00000000    0.00000003
     atom    6 type  1   force =    -0.00000000   -0.00000000    0.00000003
     atom    7 type  1   force =    -0.00000000    0.00000000    0.00000001
     atom    8 type  1   force =    -0.00000000    0.00000000   -0.00000002
     atom    9 type  1   force =    -0.00000000   -0.00000001    0.00000004
     atom   10 type  1   force =    -0.00000000   -0.00000000    0.00000003
     atom   11 type  1   force =    -0.00000000    0.00000000    0.00000003
     atom   12 type  1   force =     0.00000000   -0.00000001    0.00000000
     atom   13 type  1   force =     0.00000000   -0.00000000   -0.00000002
     atom   14 type  1   force =    -0.00000000   -0.00000000   -0.00000006
     atom   15 type  1   force =     0.00000000   -0.00000000   -0.00000007
     atom   16 type  1   force =     0.00000000    0.00000000   -0.00000005
     atom   17 type  1   force =    -0.00000000    0.00000001   -0.00000005
     atom   18 type  1   force =     0.00000000    0.00000000   -0.00000007
     atom   19 type  1   force =     0.00000000    0.00000000   -0.00000006
     atom   20 type  1   force =     0.00000000   -0.00000001   -0.00000006
     atom   21 type  1   force =     0.00000000    0.00000000   -0.00000005
     atom   22 type  1   force =     0.00000000   -0.00000001   -0.00000003
     atom   23 type  1   force =     0.00000000    0.00000001    0.00000000
     atom   24 type  1   force =     0.00000000   -0.00000001    0.00000003
     atom   25 type  1   force =     0.00000000    0.00000001    0.00000003
     atom   26 type  1   force =    -0.00000000    0.00000001    0.00000004
     atom   27 type  1   force =    -0.00000000   -0.00000000    0.00000003
     atom   28 type  1   force =    -0.00000000   -0.00000000    0.00000003
     atom   29 type  1   force =     0.00000000    0.00000000    0.00000001
     atom   30 type  1   force =     0.00000000    0.00000000   -0.00000002
     atom   31 type  1   force =     0.00000000   -0.00000001    0.00000004
     atom   32 type  1   force =     0.00000000   -0.00000000    0.00000003
     atom   33 type  1   force =    -0.00000000    0.00000000    0.00000003
     atom   34 type  1   force =     0.00000000   -0.00000000   -0.00000000
     atom   35 type  1   force =    -0.00000000    0.00000000   -0.00000003
     atom   36 type  1   force =     0.00000000   -0.00000000   -0.00000005
     atom   37 type  1   force =    -0.00000000   -0.00000000   -0.00000007
     atom   38 type  1   force =    -0.00000000    0.00000000   -0.00000005
     atom   39 type  1   force =     0.00000000    0.00000001   -0.00000005
     atom   40 type  1   force =    -0.00000000    0.00000000   -0.00000006
     atom   41 type  1   force =    -0.00000000    0.00000001   -0.00000006
     atom   42 type  1   force =     0.00000000   -0.00000001   -0.00000005
     atom   43 type  1   force =    -0.00000000    0.00000000   -0.00000005
     atom   44 type  1   force =    -0.00000000   -0.00000001   -0.00000003

     Total force =     0.001354     Total SCF correction =     0.000000

     Writing all to output data dir ./Li/Lithium.save/ :
     XML data file

     General routines

     Parallel routines

     PAW routines

     Environ routines

   This run was terminated on:  17:19:52   8Jan2025

   JOB DONE.