     Program PWSCF v.7.4 starts on 23Jan2025 at  0:35:55

     Reading input from espresso.pwi
Warning: card &CELL ignored
Warning: card    PRESS_CONV_THR   = 0.1 ignored
Warning: card    CELL_DOFREE      = 'ALL' ignored
Warning: card / ignored
Warning: card &FCP ignored
Warning: card / ignored
Warning: card &RISM ignored
Warning: card / ignored

     Current dimensions of program PWSCF are:
     Max number of different atomic species (ntypx) = 10
     Max number of k-points (npk) =  40000
     Max angular momentum in pseudopotentials (lmaxx) =  4

     IMPORTANT: XC functional enforced from input :
     Exchange-correlation= PBE
                           (   1   4   3   4   0   0   0)
     Any further DFT definition will be discarded
     Please, verify this is what you really want

     Found identity + (  0.5000 -0.0000 -0.0000) symmetry
     This is a supercell, fractional translations are disabled

     K-points division:     npool     =       3
     R & G space division:  proc/nbgrp/npool/nimage =     128
     Subspace diagonalization in iterative solution of the eigenvalue problem:
     a serial algorithm will be used

     Using Slab Decomposition

     bravais-lattice index     =            0
     lattice parameter (alat)  =      18.3607  a.u.
     unit-cell volume          =   18054.2689 (a.u.)^3
     number of atoms/cell      =           44
     number of atomic types    =            1
     number of electrons       =       132.00
     number of Kohn-Sham states=           99
     kinetic-energy cutoff     =      80.0000  Ry
     charge density cutoff     =     800.0000  Ry
     scf convergence threshold =      1.0E-06
     mixing beta               =       0.2000
     number of iterations used =            8  local-TF  mixing
     energy convergence thresh.=      1.0E-05
     force convergence thresh. =      3.9E-04
     Exchange-correlation= PBE
                           (   1   4   3   4   0   0   0)
     nstep                     =           50

     celldm(1)=  18.360747  celldm(2)=   0.000000  celldm(3)=   0.000000
     celldm(4)=   0.000000  celldm(5)=   0.000000  celldm(6)=   0.000000

     crystal axes: (cart. coord. in units of alat)
               a(1) = (   1.000000   0.000000   0.000000 )
               a(2) = (  -0.250000   0.829156   0.000000 )
               a(3) = (   0.000000   0.000000   3.517812 )

     reciprocal axes: (cart. coord. in units 2 pi/alat)
               b(1) = (  1.000000  0.301511  0.000000 )
               b(2) = (  0.000000  1.206046  0.000000 )
               b(3) = (  0.000000  0.000000  0.284268 )

     PseudoPot. # 1 for Li read from file:
     /iridisfs/home/ba3g18/Repos/Pseudopotentials/pslibrary.1.0.0/pbe/PSEUDOPOTENTIALS/Li.pbe-sl-kjpaw_psl.1.0.0.UPF
     MD5 check sum: 3f4d2cafebb47c6c3aa8ed472e6f074d
     Pseudo is Projector augmented-wave, Zval =  3.0
     Generated using 'atomic' code by A. Dal Corso  v.7.4
     Shape of augmentation charge: PSQ
     Using radial grid of 1017 points,  4 beta functions with:
                l(1) =   0
                l(2) =   0
                l(3) =   1
                l(4) =   1
     Q(r) pseudized with 0 coefficients

     atomic species   valence    mass     pseudopotential
     Li                3.00     6.94000     Li( 1.00)

     No symmetry found

   Cartesian axes

     site n.     atom                  positions (alat units)
         1        Li     tau(   1) = (  -0.2503316   0.7690285   1.1997267  )
         2        Li     tau(   2) = (   0.2498896   0.2578374   2.2817983  )
         3        Li     tau(   3) = (  -0.0001107   0.4572980   2.1650496  )
         4        Li     tau(   4) = (   0.2503998   0.6767336   2.0382614  )
         5        Li     tau(   5) = (   0.2497383   0.0811910   1.9440211  )
         6        Li     tau(   6) = (   0.0000121   0.3009873   1.8463539  )
         7        Li     tau(   7) = (   0.2502566   0.5234817   1.7390874  )
         8        Li     tau(   8) = (  -0.0002877   0.7529987   1.6273118  )
         9        Li     tau(   9) = (  -0.0000061   0.1518705   1.5070433  )
        10        Li     tau(  10) = (   0.2501046   0.3863927   1.3991886  )
        11        Li     tau(  11) = (  -0.0000401   0.5885510   1.3131991  )
        12        Li     tau(  12) = (  -0.0001045   0.1412525   2.1186229  )
        13        Li     tau(  13) = (   0.2500061   0.3757742   2.0107684  )
        14        Li     tau(  14) = (   0.0002877   0.6038023   1.8905001  )
        15        Li     tau(  15) = (   0.2497434   0.8333194   1.7787247  )
        16        Li     tau(  16) = (   0.2499878   0.2266578   1.6714579  )
        17        Li     tau(  17) = (   0.0002618   0.4464539   1.5737906  )
        18        Li     tau(  18) = (   0.2496004   0.6800673   1.4795504  )
        19        Li     tau(  19) = (   0.2501109   0.0703471   1.3527621  )
        20        Li     tau(  20) = (   0.0001103   0.2698078   1.2360136  )
        21        Li     tau(  21) = (   0.2503316   0.5877728   2.3180852  )
        22        Li     tau(  22) = (   0.0000398   0.7682501   2.2046128  )
        23        Li     tau(  23) = (   0.2496683   0.7690274   1.1997264  )
        24        Li     tau(  24) = (   0.7498891   0.2578373   2.2817981  )
        25        Li     tau(  25) = (   0.4998893   0.4572980   2.1650497  )
        26        Li     tau(  26) = (   0.7503997   0.6767338   2.0382613  )
        27        Li     tau(  27) = (   0.7497385   0.0811910   1.9440214  )
        28        Li     tau(  28) = (   0.5000121   0.3009874   1.8463537  )
        29        Li     tau(  29) = (   0.7502567   0.5234816   1.7390872  )
        30        Li     tau(  30) = (   0.4997123   0.7529988   1.6273119  )
        31        Li     tau(  31) = (   0.4999940   0.1518709   1.5070437  )
        32        Li     tau(  32) = (   0.7501044   0.3863923   1.3991895  )
        33        Li     tau(  33) = (   0.4999605   0.5885506   1.3131986  )
        34        Li     tau(  34) = (   0.4998955   0.1412524   2.1186226  )
        35        Li     tau(  35) = (   0.7500060   0.3757743   2.0107684  )
        36        Li     tau(  36) = (   0.5002878   0.6038023   1.8905001  )
        37        Li     tau(  37) = (   0.7497433   0.8333194   1.7787246  )
        38        Li     tau(  38) = (   0.7499880   0.2266576   1.6714582  )
        39        Li     tau(  39) = (   0.5002614   0.4464542   1.5737906  )
        40        Li     tau(  40) = (   0.7496002   0.6800672   1.4795505  )
        41        Li     tau(  41) = (   0.7501106   0.0703467   1.3527621  )
        42        Li     tau(  42) = (   0.5001111   0.2698071   1.2360134  )
        43        Li     tau(  43) = (   0.7503317   0.5877728   2.3180850  )
        44        Li     tau(  44) = (   0.5000398   0.7682501   2.2046131  )

     number of k points=    29  Marzari-Vanderbilt smearing, width (Ry)=  0.0100
                       cart. coord. in units 2pi/alat
        k(    1) = (   0.0000000   0.0000000   0.0000000), wk =   0.0357143
        k(    2) = (   0.0000000   0.1507557   0.0000000), wk =   0.0714286
        k(    3) = (   0.0000000   0.3015114   0.0000000), wk =   0.0714286
        k(    4) = (   0.0000000   0.4522671   0.0000000), wk =   0.0714286
        k(    5) = (   0.0000000  -0.6030228   0.0000000), wk =   0.0357143
        k(    6) = (   0.1428571   0.0430731   0.0000000), wk =   0.0714286
        k(    7) = (   0.1428571   0.1938288   0.0000000), wk =   0.0714286
        k(    8) = (   0.1428571   0.3445845   0.0000000), wk =   0.0714286
        k(    9) = (   0.1428571   0.4953402   0.0000000), wk =   0.0714286
        k(   10) = (   0.1428571  -0.5599498   0.0000000), wk =   0.0714286
        k(   11) = (   0.1428571  -0.4091941   0.0000000), wk =   0.0714286
        k(   12) = (   0.1428571  -0.2584384   0.0000000), wk =   0.0714286
        k(   13) = (   0.1428571  -0.1076826   0.0000000), wk =   0.0714286
        k(   14) = (   0.2857143   0.0861461   0.0000000), wk =   0.0714286
        k(   15) = (   0.2857143   0.2369018   0.0000000), wk =   0.0714286
        k(   16) = (   0.2857143   0.3876575   0.0000000), wk =   0.0714286
        k(   17) = (   0.2857143   0.5384132   0.0000000), wk =   0.0714286
        k(   18) = (   0.2857143  -0.5168767   0.0000000), wk =   0.0714286
        k(   19) = (   0.2857143  -0.3661210   0.0000000), wk =   0.0714286
        k(   20) = (   0.2857143  -0.2153653   0.0000000), wk =   0.0714286
        k(   21) = (   0.2857143  -0.0646096   0.0000000), wk =   0.0714286
        k(   22) = (   0.4285714   0.1292192   0.0000000), wk =   0.0714286
        k(   23) = (   0.4285714   0.2799749   0.0000000), wk =   0.0714286
        k(   24) = (   0.4285714   0.4307306   0.0000000), wk =   0.0714286
        k(   25) = (   0.4285714   0.5814863   0.0000000), wk =   0.0714286
        k(   26) = (   0.4285714  -0.4738037   0.0000000), wk =   0.0714286
        k(   27) = (   0.4285714  -0.3230479   0.0000000), wk =   0.0714286
        k(   28) = (   0.4285714  -0.1722922   0.0000000), wk =   0.0714286
        k(   29) = (   0.4285714  -0.0215365   0.0000000), wk =   0.0714286

     Initial potential from superposition of free atoms

     starting charge     131.7972, renormalised to     132.0000

     negative rho (up, down):  2.890E-03 0.000E+00
     Starting wfcs are  220 randomized atomic wfcs
     Checking if some PAW data can be deallocated...

     Self-consistent Calculation

     iteration #  1     ecut=    80.00 Ry     beta= 0.20
     Davidson diagonalization with overlap
     ethr =  1.00E-02,  avg # of iterations =  3.7

     negative rho (up, down):  1.813E-04 0.000E+00

     total energy              =    -661.86645516 Ry
     estimated scf accuracy    <       5.64516467 Ry

[...]

     iteration # 13     ecut=    80.00 Ry     beta= 0.20
     Davidson diagonalization with overlap
     c_bands:  1 eigenvalues not converged
     c_bands:  1 eigenvalues not converged
     c_bands:  2 eigenvalues not converged
     c_bands:  1 eigenvalues not converged
     c_bands:  1 eigenvalues not converged
     c_bands:  2 eigenvalues not converged
     c_bands:  1 eigenvalues not converged
     c_bands:  1 eigenvalues not converged
     ethr =  8.46E-06,  avg # of iterations = 19.9

[...]

     iteration # 21     ecut=    80.00 Ry     beta= 0.20
     Davidson diagonalization with overlap
     c_bands:  1 eigenvalues not converged
     ethr =  8.97E-09,  avg # of iterations = 12.9

[...]

     End of self-consistent calculation

          k = 0.0000 0.0000 0.0000 (218227 PWs)   bands (ev):

   -49.1194 -49.1194 -49.1194 -49.1194 -49.0535 -49.0535 -49.0535 -49.0535
   -48.4900 -48.4900 -48.4899 -48.4899 -48.2708 -48.2708 -48.2707 -48.2707
   -48.2385 -48.2385 -48.2384 -48.2384 -48.1225 -48.1170 -48.1170 -48.1168
   -48.1139 -48.1139 -48.1115 -48.1106 -48.1046 -48.1042 -48.1039 -48.1039
   -48.0996 -48.0984 -48.0957 -48.0942 -48.0757 -48.0755 -48.0744 -48.0743
   -48.0480 -48.0474 -48.0450 -48.0444  -4.9822  -4.5200  -3.7564  -3.6830
    -3.6815  -3.2561  -3.2491  -3.2259  -3.2125  -2.8136  -2.8016  -2.8007
[...]
Li               2.4265033971        0.7888481039       18.8884786943
Li               0.0001081280        2.9244033351       17.9393738751
Li               2.4315075378        5.0862118424       16.8970833810
Li              -0.0027914248        7.3161656575       15.8109781302
Li              -0.0000546819        1.4755907307       14.6422759666
Li               2.4300397642        3.7542286332       13.5945726465
Li              -0.0004558734        5.7184418832       12.7592976387
Li              -0.0010144974        1.3724190294       20.5847985369
Li               2.4290783588        3.6510555474       19.5370952333
Li               0.0027898283        5.8666327714       18.3683928027
Li               2.4265341103        8.0965905781       17.2822902193
Li               2.4289106607        2.2022452062       16.2399954219
Li               0.0025195617        4.3378001838       15.2908911528
Li               2.4251915260        6.6075624198       14.3752039192
Li               2.4300294944        0.6834169290       13.1434848299
Li               0.0010744301        2.6214099163       12.0095734554
Li               2.4321775185        5.7107593146       22.5222333373
Li               0.0004540667        7.4643573346       21.4200758362
Li               2.4258656615        7.4720290520       11.6571362640
Li               7.2859858287        2.5052381496       22.1697917904
Li               4.8570396197        4.4432306866       21.0358863857
Li               7.2909000688        6.5752385240       19.8041737974
Li               7.2845522329        0.7888434116       18.8884838665
Li               4.8581538755        2.9244028911       17.9393722223
Li               7.2895518030        5.0862080507       16.8970816044
Li               4.8552526673        7.3161667035       15.8109827423
Li               4.8579917416        1.4755900665       14.6422788285
Li               7.2880809416        3.7542234736       13.5945817986
Li               4.8575938700        5.7184391738       12.7592939680
Li               4.8570294380        1.3724181244       20.5847938790
Li               7.2871201149        3.6510578742       19.5370968651
Li               4.8608361929        5.8666321746       18.3683900844
Li               7.2845804470        8.0965884835       17.2822892353
Li               7.2869563220        2.2022412970       16.2400035456
Li               4.8605600062        4.3378002456       15.2908908678
Li               7.2832320099        6.6075628848       14.3752037463
Li               7.2880704709        0.6834130441       13.1434826989
Li               4.8591263808        2.6214027616       12.0095782707
Li               7.2902246219        5.7107610758       22.5222324947
Li               4.8584982985        7.4643569737       21.4200765469

     Message from routine punch:
     Nothing written, as per user request (disk_io='none')
     NEW-OLD atomic charge density approx. for the potential

[...]

     Threshold (ethr) on eigenvalues was too large:
     Diagonalizing with lowered threshold

     Davidson diagonalization with overlap
     ethr =  2.88E-09,  avg # of iterations =  2.0

[...]

     Total force =     0.002658     Total SCF correction =     0.000203
     Energy error            =      8.3E-06 Ry
     Gradient error          =      7.1E-04 Ry/Bohr

[...]

     energy             old  =    -661.5659806238 Ry
     energy             new  =    -661.5659889381 Ry

     CASE: energy            _new < energy            _old

     WARNING: bfgs curvature condition failed, Theta= 0.922
     new trust radius        =       0.0010426080 bohr
     new conv_thr            =            1.0E-12 Ry

[...]

     number of scf cycles    =   8
     number of bfgs steps    =   7

     energy             old  =    -661.5660816038 Ry
     energy             new  =    -661.5661066930 Ry

     CASE: energy            _new < energy            _old

     new trust radius        =       0.0067288606 bohr
     new conv_thr            =            1.0E-12 Ry

ATOMIC_POSITIONS (angstrom)
Li              -2.4299813237        7.4753930262       11.6715995478
Li               2.4278995037        2.5062314528       22.1581072402
Li               0.0013132345        4.4454777854       21.0370967338
Li               2.4312240591        6.5758001943       19.8107284365
Li               2.4273854134        0.7896210702       18.8952627870
Li              -0.0000774954        2.9235229238       17.9407982888
Li               2.4312295845        5.0856857132       16.8954033187
Li              -0.0025265756        7.3151778665       15.8064679225
Li              -0.0000981231        1.4753869369       14.6325839539
Li               2.4298898496        3.7535743045       13.5928773195
Li              -0.0026154619        5.7195969647       12.7653278637
Li              -0.0008549336        1.3730775919       20.5865032450
Li               2.4291294043        3.6512793219       19.5467884794
Li               0.0025169405        5.8676160705       18.3728927448
Li               2.4268022848        8.0971197020       17.2839743860
Li               2.4290837421        2.2031397984       16.2385624456
Li               0.0016355008        4.3370511298       15.2841038625
Li               2.4268206211        6.6069806759       14.3686570677
Li               2.4277217483        0.6811716600       13.1422657358
Li               0.0011200706        2.6204254863       12.0212308402
Li               2.4299751147        5.7073817566       22.5077608562
Li               0.0026179227        7.4632017255       21.4140475053
Li               2.4280688336        7.4753877618       11.6715999002
Li               7.2859416371        2.5062209999       22.1580886692
Li               4.8593541826        4.4454840011       21.0370985015
Li               7.2892807866        6.5758229036       19.8107492344
Li               7.2854511985        0.7895910237       18.8952781188
Li               4.8579783951        2.9235150134       17.9407982814
Li               7.2892651538        5.0856746458       16.8954005317
Li               4.8555146080        7.3151821731       15.8064926549
Li               4.8579508820        1.4753633324       14.6325836945
Li               7.2879226444        3.7535620186       13.5928960463
Li               4.8554279517        5.7196006888       12.7653440112
Li               4.8571885134        1.3730754270       20.5864821961
Li               7.2871625924        3.6512881162       19.5467984012
Li               4.8605712586        5.8676064016       18.3728816350
Li               7.2848613967        8.0971076757       17.2839729406
Li               7.2871237976        2.2031255990       16.2385932555
Li               4.8596715843        4.3370320262       15.2841060616
Li               7.2848510102        6.6069881404       14.3686508478
Li               7.2857616860        0.6811710965       13.1422546742
Li               4.8591709301        2.6204188305       12.0212681959
Li               7.2880308523        5.7073985918       22.5077646187
Li               4.8606601835        7.4631967357       21.4140432983

     Message from routine punch:
     Nothing written, as per user request (disk_io='none')
     NEW-OLD atomic charge density approx. for the potential

[...]

     Self-consistent Calculation

[...]

     Threshold (ethr) on eigenvalues was too large:
     Diagonalizing with lowered threshold

     Davidson diagonalization with overlap
     ethr =  1.97E-08,  avg # of iterations =  2.3

[...]

     total energy              =    -661.56611387 Ry
     estimated scf accuracy    <          1.2E-12 Ry

     iteration # 15     ecut=    80.00 Ry     beta= 0.20
     Davidson diagonalization with overlap
     ethr =  1.00E-13,  avg # of iterations =  2.0

     negative rho (up, down):  2.707E-04 0.000E+00

     End of self-consistent calculation

[...]

          k = 0.4286-0.0215 0.0000 (218237 PWs)   bands (ev):

   -49.1066 -49.1066 -49.1066 -49.1065 -49.0422 -49.0421 -49.0421 -49.0421
   -48.4861 -48.4861 -48.4861 -48.4861 -48.2696 -48.2696 -48.2696 -48.2696
   -48.2349 -48.2349 -48.2349 -48.2348 -48.1279 -48.1271 -48.1228 -48.1226
   -48.1121 -48.1118 -48.1117 -48.1116 -48.1065 -48.1065 -48.1046 -48.1045
   -48.1028 -48.1025 -48.1003 -48.0999 -48.0740 -48.0738 -48.0738 -48.0736
   -48.0571 -48.0570 -48.0542 -48.0541  -4.7647  -4.4701  -4.3059  -4.0120
    -3.6602  -3.5394  -3.2809  -3.1586  -3.0955  -2.9740  -2.6441  -2.5677
    -2.5110  -2.4874  -2.4590  -2.2218  -1.9948  -1.8595  -1.8455  -1.7316
    -1.6870  -1.5930  -1.5644  -1.5391  -1.4799  -1.4631  -1.2597  -1.2023
    -1.2010  -1.1075  -1.0940  -0.8890  -0.8613  -0.7696  -0.6483  -0.6073
    -0.4950  -0.4412  -0.1962  -0.1377  -0.0459   0.1261   0.2631   0.3457
     0.4299   0.4551   0.5833   0.6653   0.7828   1.1662   1.2467   1.3372
     1.4577   1.4926   1.5646

     the Fermi energy is    -1.5686 ev

!    total energy              =    -661.56611384 Ry
     total all-electron energy =      -661.566471 Ry
     estimated scf accuracy    <          6.5E-13 Ry
     smearing contrib. (-TS)   =      -0.00165485 Ry
     internal energy E=F+TS    =    -661.56445899 Ry

     The total energy is F=E-TS. E is the sum of the following terms:
     one-electron contribution =   -4172.77934368 Ry
     hartree contribution      =    2020.15857485 Ry
     xc contribution           =    -157.54353614 Ry
     ewald contribution        =    1644.71948574 Ry
     one-center paw contrib.   =       3.88036023 Ry

     convergence has been achieved in  15 iterations

     Forces acting on atoms (cartesian axes, Ry/au):

     atom    1 type  1   force =    -0.00001777    0.00018206    0.00012948
     atom    2 type  1   force =     0.00001945   -0.00014034   -0.00007063
     atom    3 type  1   force =    -0.00002633   -0.00005695   -0.00006003
     atom    4 type  1   force =     0.00002902    0.00008461   -0.00031147
     atom    5 type  1   force =     0.00000569    0.00016379   -0.00000982
     atom    6 type  1   force =     0.00001263    0.00008680    0.00004381
     atom    7 type  1   force =    -0.00002481    0.00000912    0.00003530
     atom    8 type  1   force =     0.00004156   -0.00006120   -0.00003745
     atom    9 type  1   force =    -0.00004032   -0.00021391    0.00013940
     atom   10 type  1   force =    -0.00003655   -0.00001719   -0.00000482
     atom   11 type  1   force =     0.00003142    0.00001006    0.00001214
     atom   12 type  1   force =     0.00003592    0.00001717    0.00000428
     atom   13 type  1   force =     0.00003961    0.00021352   -0.00013992
     atom   14 type  1   force =    -0.00004163    0.00006187    0.00003755
     atom   15 type  1   force =     0.00002501   -0.00000977   -0.00003488
     atom   16 type  1   force =    -0.00001180   -0.00008733   -0.00004328
     atom   17 type  1   force =    -0.00000597   -0.00016455    0.00001029
     atom   18 type  1   force =    -0.00002891   -0.00008371    0.00031034
     atom   19 type  1   force =     0.00002571    0.00005708    0.00006014
     atom   20 type  1   force =    -0.00001910    0.00013962    0.00007135
     atom   21 type  1   force =     0.00001823   -0.00018179   -0.00012935
     atom   22 type  1   force =    -0.00003137   -0.00000944   -0.00001177
     atom   23 type  1   force =    -0.00001791    0.00018206    0.00012968
     atom   24 type  1   force =     0.00001923   -0.00014003   -0.00006988
     atom   25 type  1   force =    -0.00002630   -0.00005718   -0.00005997
     atom   26 type  1   force =     0.00002821    0.00008363   -0.00031252
     atom   27 type  1   force =     0.00000522    0.00016513   -0.00001038
     atom   28 type  1   force =     0.00001215    0.00008711    0.00004371
     atom   29 type  1   force =    -0.00002421    0.00000949    0.00003515
     atom   30 type  1   force =     0.00004159   -0.00006151   -0.00003848
     atom   31 type  1   force =    -0.00003995   -0.00021348    0.00014003
     atom   32 type  1   force =    -0.00003553   -0.00001682   -0.00000473
     atom   33 type  1   force =     0.00003165    0.00000982    0.00001154
     atom   34 type  1   force =     0.00003572    0.00001696    0.00000453
     atom   35 type  1   force =     0.00003990    0.00021329   -0.00014059
     atom   36 type  1   force =    -0.00004146    0.00006184    0.00003863
     atom   37 type  1   force =     0.00002486   -0.00000936   -0.00003519
     atom   38 type  1   force =    -0.00001174   -0.00008712   -0.00004421
     atom   39 type  1   force =    -0.00000584   -0.00016426    0.00001026
     atom   40 type  1   force =    -0.00002855   -0.00008374    0.00031089
     atom   41 type  1   force =     0.00002622    0.00005703    0.00006089
     atom   42 type  1   force =    -0.00001912    0.00013989    0.00007015
     atom   43 type  1   force =     0.00001808   -0.00018246   -0.00012909
     atom   44 type  1   force =    -0.00003189   -0.00000981   -0.00001108

     Total force =     0.001101     Total SCF correction =     0.000023
     Energy error            =      7.1E-06 Ry
     Gradient error          =      3.1E-04 Ry/Bohr

     bfgs converged in   9 scf cycles and   8 bfgs steps
     (criteria: energy <  1.0E-05 Ry, force <  3.9E-04 Ry/Bohr)

     End of BFGS Geometry Optimization

     Final energy             =    -661.5661138422 Ry

     File ./pwscf.bfgs deleted, as requested
Begin final coordinates

ATOMIC_POSITIONS (angstrom)
Li              -2.4299813237        7.4753930262       11.6715995478
Li               2.4278995037        2.5062314528       22.1581072402
Li               0.0013132345        4.4454777854       21.0370967338
Li               2.4312240591        6.5758001943       19.8107284365
Li               2.4273854134        0.7896210702       18.8952627870
Li              -0.0000774954        2.9235229238       17.9407982888
Li               2.4312295845        5.0856857132       16.8954033187
Li              -0.0025265756        7.3151778665       15.8064679225
Li              -0.0000981231        1.4753869369       14.6325839539
Li               2.4298898496        3.7535743045       13.5928773195
Li              -0.0026154619        5.7195969647       12.7653278637
Li              -0.0008549336        1.3730775919       20.5865032450
Li               2.4291294043        3.6512793219       19.5467884794
Li               0.0025169405        5.8676160705       18.3728927448
Li               2.4268022848        8.0971197020       17.2839743860
Li               2.4290837421        2.2031397984       16.2385624456
Li               0.0016355008        4.3370511298       15.2841038625
Li               2.4268206211        6.6069806759       14.3686570677
Li               2.4277217483        0.6811716600       13.1422657358
Li               0.0011200706        2.6204254863       12.0212308402
Li               2.4299751147        5.7073817566       22.5077608562
Li               0.0026179227        7.4632017255       21.4140475053
Li               2.4280688336        7.4753877618       11.6715999002
Li               7.2859416371        2.5062209999       22.1580886692
Li               4.8593541826        4.4454840011       21.0370985015
Li               7.2892807866        6.5758229036       19.8107492344
Li               7.2854511985        0.7895910237       18.8952781188
Li               4.8579783951        2.9235150134       17.9407982814
Li               7.2892651538        5.0856746458       16.8954005317
Li               4.8555146080        7.3151821731       15.8064926549
Li               4.8579508820        1.4753633324       14.6325836945
Li               7.2879226444        3.7535620186       13.5928960463
Li               4.8554279517        5.7196006888       12.7653440112
Li               4.8571885134        1.3730754270       20.5864821961
Li               7.2871625924        3.6512881162       19.5467984012
Li               4.8605712586        5.8676064016       18.3728816350
Li               7.2848613967        8.0971076757       17.2839729406
Li               7.2871237976        2.2031255990       16.2385932555
Li               4.8596715843        4.3370320262       15.2841060616
Li               7.2848510102        6.6069881404       14.3686508478
Li               7.2857616860        0.6811710965       13.1422546742
Li               4.8591709301        2.6204188305       12.0212681959
Li               7.2880308523        5.7073985918       22.5077646187
Li               4.8606601835        7.4631967357       21.4140432983
End final coordinates

     Message from routine punch:
     Nothing written, as per user request (disk_io='none')

     General routines

     Parallel routines

   This run was terminated on:   0:53:52  23Jan2025

   JOB DONE.