     Program PWSCF v.7.4 starts on  3Jan2025 at 12: 0: 9

     Reading input from espresso.pwi
Warning: card &CELL ignored
Warning: card    PRESS_CONV_THR   = 0.1 ignored
Warning: card    CELL_DOFREE      = 'ALL' ignored
Warning: card / ignored
Warning: card &FCP ignored
Warning: card / ignored
Warning: card &RISM ignored
Warning: card / ignored

     Current dimensions of program PWSCF are:
     Max number of different atomic species (ntypx) = 10
     Max number of k-points (npk) =  40000
     Max angular momentum in pseudopotentials (lmaxx) =  4

     IMPORTANT: XC functional enforced from input :
     Exchange-correlation= PBE
                           (   1   4   3   4   0   0   0)
     Any further DFT definition will be discarded
     Please, verify this is what you really want

     Reading input from environ.in:
     * using ionic solvent mode
     * setting boundary derivatives method to SSCS default
     * setting electrolyte-boundary derivatives method to SSCS default

Environ Warning (1001): card EOF ignored

     Found identity + ( -0.5000  0.0000 -0.0000) symmetry
     This is a supercell, fractional translations are disabled

     K-points division:     npool     =       2
     R & G space division:  proc/nbgrp/npool/nimage =     256
     Subspace diagonalization in iterative solution of the eigenvalue problem:
     a serial algorithm will be used

     Using Slab Decomposition

     bravais-lattice index     =           12
     lattice parameter (alat)  =      12.9830  a.u.
     unit-cell volume          =   12574.0527 (a.u.)^3
     number of atoms/cell      =           20
     number of atomic types    =            1
     number of electrons       =        60.00
     number of Kohn-Sham states=           45
     kinetic-energy cutoff     =      80.0000  Ry
     charge density cutoff     =     800.0000  Ry
     scf convergence threshold =      1.0E-06
     mixing beta               =       0.2000
     number of iterations used =            8  local-TF  mixing
     energy convergence thresh.=      1.0E-05
     force convergence thresh. =      3.9E-04
     Exchange-correlation= PBE
                           (   1   4   3   4   0   0   0)
     nstep                     =          999

                                  Environ Setup Summary

          O. Andreussi, I. Dabo and N. Marzari, J. Chem. Phys. 136, 064102 (2012)
          F. Nattino, M. Truscott, N. Marzari, and O. Andreussi, J. Chem. Phys. 150, 041722 (2019)

     in publications or presentations arising from this work.

     Parameters

     compensation onset threshold      =               0.1000E+00
     static permittivity               =                    89.90
     surface tension in input (dyn/cm) =                    37.30
     surface tension in internal units =               0.4792E-04

     Solvent Boundary

     solvent mode                      =                    ionic
     derivatives method                =                   lowmem
     electrolyte derivatives method    =                   lowmem
     numerical core for derivatives    =                      fft
     switching function adopted        =                     SCCS
     density limit for vacuum region   =               0.5000E-02
     density limit for bulk solvent    =               0.1000E-03
     soft-sphere radius mode           =                    bondi
     soft-sphere softness              =                     0.50
     alpha                             =                     1.32

     Electrostatic Setup

     electrostatic problem to solve    =                    modpb
     numerical solver adopted          =                   newton
     type of auxiliary density adopted =                     none
     numerical core for poisson        =                      fft
     adopting a nested solver scheme
     inner solver                      =                       cg
     inner core                        =                      fft
     type of pbc corrections           =                parabolic
     numerical core for corrections    =                      1da

     >>>>> Grand-Canonical SCF is activated <<<<<
     Initial Total Charge  =     0.000000 e
     Target Fermi Energy   =    -2.404000 eV
     Thr. of Fermi Energy  =     0.001000 eV
     Wave-shift of Kerker  =     0.400000 bohr^-1
     Wave-shift of Hartree =     1.500000 bohr^-1
     Mixing Rate of Fermi  =     0.050000

     celldm(1)=  12.983009  celldm(2)=   0.829156  celldm(3)=   7.267908
     celldm(4)=  -0.301511  celldm(5)=   0.000000  celldm(6)=   0.000000

     crystal axes: (cart. coord. in units of alat)
               a(1) = (   1.000000   0.000000   0.000000 )
               a(2) = (  -0.250000   0.790569   0.000000 )
               a(3) = (   0.000000   0.000000   7.267908 )

     reciprocal axes: (cart. coord. in units 2 pi/alat)
               b(1) = (  1.000000  0.316228 -0.000000 )
               b(2) = (  0.000000  1.264912  0.000000 )
               b(3) = (  0.000000 -0.000000  0.137591 )

     PseudoPot. # 1 for Li read from file:
     /work/e89/e89/ba3g18/Repos/Pseudopotentials/Pslibrary/Li.pbe-sl-kjpaw_psl.1.0.0.UPF
     MD5 check sum: 3f4d2cafebb47c6c3aa8ed472e6f074d
     Pseudo is Projector augmented-wave, Zval =  3.0
     Generated using 'atomic' code by A. Dal Corso  v.7.4
     Shape of augmentation charge: PSQ
     Using radial grid of 1017 points,  4 beta functions with:
                l(1) =   0
                l(2) =   0
                l(3) =   1
                l(4) =   1
     Q(r) pseudized with 0 coefficients

     atomic species   valence    mass     pseudopotential
     Li                3.00     6.94000     Li( 1.00)

     No symmetry found

                                    s                        frac. trans.

      isym =  1     identity

 cryst.   s( 1) = (     1          0          0      )
                  (     0          1          0      )
                  (     0          0          1      )

 cart.    s( 1) = (  1.0000000 -0.0000000  0.0000000 )
                  (  0.0000000  1.0000000  0.0000000 )
                  (  0.0000000  0.0000000  1.0000000 )

     point group C_1 (1)
     there are  1 classes
     the character table:

       E
A      1.00

     the symmetry operations in each class and the name of the first element:

     E        1
          identity

   Cartesian axes

     site n.     atom                  positions (alat units)
         1        Li     tau(   1) = (   0.2502923   0.3183407   3.0679473  )
         2        Li     tau(   2) = (   0.0002632   0.6327761   3.2473280  )
         3        Li     tau(   3) = (   0.0001614   0.1620385   3.3793959  )
         4        Li     tau(   4) = (   0.2500796   0.4691385   3.5654698  )
         5        Li     tau(   5) = (   0.2499225   0.0053431   3.7026117  )
         6        Li     tau(   6) = (  -0.0001627   0.3123882   3.8886994  )
         7        Li     tau(   7) = (   0.2497366   0.6321691   4.0205269  )
         8        Li     tau(   8) = (   0.2497087   0.1558733   4.1999171  )
         9        Li     tau(   9) = (  -0.0002998   0.5113653   4.3538353  )
        10        Li     tau(  10) = (   0.5002985  -0.0371591   2.9138138  )
        11        Li     tau(  11) = (   0.7502930   0.3183419   3.0679463  )
        12        Li     tau(  12) = (   0.5002642   0.6327779   3.2473270  )
        13        Li     tau(  13) = (   0.5001614   0.1620382   3.3793925  )
        14        Li     tau(  14) = (   0.7500781   0.4691396   3.5654707  )
        15        Li     tau(  15) = (   0.7499198   0.0053429   3.7026120  )
        16        Li     tau(  16) = (   0.4998405   0.3123889   3.8887006  )
        17        Li     tau(  17) = (   0.7497359   0.6321732   4.0205245  )
        18        Li     tau(  18) = (   0.7497074   0.1558733   4.1999187  )
        19        Li     tau(  19) = (   0.4997015   0.5113651   4.3538296  )
        20        Li     tau(  20) = (   1.0002982  -0.0371583   2.9138078  )

   Crystallographic axes

     site n.     atom                  positions (cryst. coord.)
         1        Li     tau(   1) = (  0.3509605  0.4026729  0.4221225  )
         2        Li     tau(   2) = (  0.2003646  0.8004058  0.4468037  )
         3        Li     tau(   3) = (  0.0514025  0.2049644  0.4649751  )
         4        Li     tau(   4) = (  0.3984343  0.5934188  0.4905772  )
         5        Li     tau(   5) = (  0.2516122  0.0067586  0.5094467  )
         6        Li     tau(   6) = (  0.0986232  0.3951436  0.5350507  )
         7        Li     tau(   7) = (  0.4496461  0.7996381  0.5531890  )
         8        Li     tau(   8) = (  0.2990002  0.1971659  0.5778715  )
         9        Li     tau(   9) = (  0.1614082  0.6468320  0.5990493  )
        10        Li     tau(  10) = (  0.4885478 -0.0470030  0.4009151  )
        11        Li     tau(  11) = (  0.8509616  0.4026743  0.4221223  )
        12        Li     tau(  12) = (  0.7003663  0.8004082  0.4468035  )
        13        Li     tau(  13) = (  0.5514024  0.2049640  0.4649746  )
        14        Li     tau(  14) = (  0.8984332  0.5934202  0.4905773  )
        15        Li     tau(  15) = (  0.7516093  0.0067583  0.5094467  )
        16        Li     tau(  16) = (  0.5986266  0.3951443  0.5350509  )
        17        Li     tau(  17) = (  0.9496467  0.7996433  0.5531887  )
        18        Li     tau(  18) = (  0.7989988  0.1971659  0.5778717  )
        19        Li     tau(  19) = (  0.6614095  0.6468317  0.5990485  )
        20        Li     tau(  20) = (  0.9885477 -0.0470019  0.4009142  )

     number of k points=    62  Marzari-Vanderbilt smearing, width (Ry)=  0.0100
                       cart. coord. in units 2pi/alat
        k(    1) = (   0.0000000   0.0000000   0.0000000), wk =   0.0166667
        k(    2) = (   0.0000000   0.1054093   0.0000000), wk =   0.0333333
        k(    3) = (   0.0000000   0.2108186   0.0000000), wk =   0.0333333
        k(    4) = (   0.0000000   0.3162279   0.0000000), wk =   0.0333333
        k(    5) = (   0.0000000   0.4216372   0.0000000), wk =   0.0333333
        k(    6) = (   0.0000000   0.5270466   0.0000000), wk =   0.0333333
        k(    7) = (   0.0000000  -0.6324559   0.0000000), wk =   0.0166667
        k(    8) = (   0.1000000   0.0316228   0.0000000), wk =   0.0333333
        k(    9) = (   0.1000000   0.1370321   0.0000000), wk =   0.0333333
        k(   10) = (   0.1000000   0.2424414   0.0000000), wk =   0.0333333
        k(   11) = (   0.1000000   0.3478507   0.0000000), wk =   0.0333333
        k(   12) = (   0.1000000   0.4532600   0.0000000), wk =   0.0333333
        k(   13) = (   0.1000000   0.5586693   0.0000000), wk =   0.0333333
        k(   14) = (   0.1000000  -0.6008331   0.0000000), wk =   0.0333333
        k(   15) = (   0.1000000  -0.4954238   0.0000000), wk =   0.0333333
        k(   16) = (   0.1000000  -0.3900144   0.0000000), wk =   0.0333333
        k(   17) = (   0.1000000  -0.2846051   0.0000000), wk =   0.0333333
        k(   18) = (   0.1000000  -0.1791958   0.0000000), wk =   0.0333333
        k(   19) = (   0.1000000  -0.0737865   0.0000000), wk =   0.0333333
[...]
    -3.7175  -3.7175  -3.4260  -3.4260  -3.2237  -3.2237  -2.4935  -2.4935
    -2.4354  -2.4354  -1.6517  -1.6517  -1.3908  -1.3907  -0.7513  -0.7513
    -0.4102  -0.4102   0.0023   0.0023   0.2790

     occupation numbers
     1.0000   1.0000   1.0000   1.0000   1.0000   1.0000   1.0000   1.0000
     1.0000   1.0000   1.0000   1.0000   1.0000   1.0000   1.0000   1.0000
     1.0000   1.0000   1.0000   1.0000   1.0000   1.0000   1.0000   1.0000
     1.0000   1.0000   1.0000   1.0000   1.0000   1.0000   0.8699   0.8699
     0.5680   0.5680   0.0000   0.0000   0.0000   0.0000   0.0000   0.0000
     0.0000   0.0000   0.0000   0.0000   0.0000

     the Fermi energy is    -2.4040 ev

!    total energy              =    -300.72484478 Ry
     total all-electron energy =      -300.725007 Ry
     estimated scf accuracy    <          8.5E-13 Ry

!    total charge of GC-SCF    =      -1.28307359 e
     smearing contrib. (-TS)   =      -0.00097718 Ry
     internal energy E=F+TS    =    -300.72386759 Ry

     The total energy is F=E-TS. E is the sum of the following terms:
     one-electron contribution =   -3540.16389507 Ry
     hartree contribution      =    1738.29723013 Ry
     xc contribution           =     -71.96787615 Ry
     ewald contribution        =    1528.91788974 Ry
     one-center paw contrib.   =       1.76445172 Ry
      -> PAW hartree energy AE =       7.41863136 Ry
      -> PAW hartree energy PS =      -7.19577850 Ry
      -> PAW xc energy AE      =      -3.48293755 Ry
      -> PAW xc energy PS      =       3.34837254 Ry
      -> total E_H with PAW    =    1738.52008299 Ry
      -> total E_XC with PAW   =     -72.10244116 Ry
     pot.stat. contrib. (-muN) =       0.22670722 Ry
     electrostatic embedding   =      -0.52930895 Ry
     cavitation energy         =       0.01512871 Ry
     electrolyte free energy   =      -0.00379969 Ry
     correction to one-el term =      42.71960474 Ry

     WARNING: you are using the parabolic pbc correction;
              the potential shift above must be added to
              band and Fermi energies.

     convergence has been achieved in  13 iterations
     The dielectric solvent contribution to forces
     atom    1 type  1   force =     0.00000063   -0.01145613    0.06201647
     atom    2 type  1   force =    -0.00000022    0.00400956    0.03776468
     atom    3 type  1   force =     0.00000030   -0.00125605    0.02452649
     atom    4 type  1   force =    -0.00000007    0.00006722    0.00697393
     atom    5 type  1   force =     0.00000003   -0.00006980   -0.00676176
     atom    6 type  1   force =    -0.00000024    0.00126164   -0.02430149
     atom    7 type  1   force =     0.00000039   -0.00402160   -0.03754143
     atom    8 type  1   force =    -0.00000081    0.01145569   -0.06177337
     atom    9 type  1   force =     0.00000027   -0.00937847   -0.02188402
     atom   10 type  1   force =    -0.00000058    0.00936520    0.02209618
     atom   11 type  1   force =     0.00000063   -0.01145631    0.06201618
     atom   12 type  1   force =    -0.00000028    0.00400953    0.03776477
     atom   13 type  1   force =     0.00000031   -0.00125606    0.02452638
     atom   14 type  1   force =     0.00000002    0.00006720    0.00697380
     atom   15 type  1   force =     0.00000002   -0.00006983   -0.00676193
     atom   16 type  1   force =    -0.00000037    0.00126173   -0.02430169
     atom   17 type  1   force =     0.00000012   -0.00402136   -0.03754063
     atom   18 type  1   force =    -0.00000044    0.01145509   -0.06177315
     atom   19 type  1   force =     0.00000064   -0.00937869   -0.02187925
     atom   20 type  1   force =    -0.00000033    0.00936455    0.02209739

     Forces acting on atoms (cartesian axes, Ry/au):

     atom    1 type  1   force =     0.00000047    0.00009197    0.00004065
     atom    2 type  1   force =    -0.00000037   -0.00004798    0.00002227
     atom    3 type  1   force =    -0.00000123    0.00015821    0.00008427
     atom    4 type  1   force =     0.00000377    0.00011680    0.00007839
     atom    5 type  1   force =    -0.00000346   -0.00007884   -0.00014185
     atom    6 type  1   force =     0.00000097   -0.00014895   -0.00010762
     atom    7 type  1   force =     0.00000016    0.00005864   -0.00003886
     atom    8 type  1   force =     0.00000002   -0.00012026    0.00000535
     atom    9 type  1   force =    -0.00000011   -0.00005387    0.00005819
     atom   10 type  1   force =     0.00000056    0.00002383    0.00000086
     atom   11 type  1   force =     0.00000034    0.00009199    0.00004107
     atom   12 type  1   force =    -0.00000009   -0.00004748    0.00002212
     atom   13 type  1   force =    -0.00000144    0.00015788    0.00008369
     atom   14 type  1   force =     0.00000300    0.00011742    0.00007818
     atom   15 type  1   force =    -0.00000328   -0.00007840   -0.00014233
     atom   16 type  1   force =     0.00000173   -0.00014934   -0.00010775
     atom   17 type  1   force =     0.00000026    0.00005953   -0.00003830
     atom   18 type  1   force =    -0.00000078   -0.00012016    0.00000501
     atom   19 type  1   force =    -0.00000032   -0.00005436    0.00005647
     atom   20 type  1   force =    -0.00000020    0.00002335    0.00000018
     The non-local contrib.  to forces
     atom    1 type  1   force =     0.00001113    0.00516115   -0.02396846
     atom    2 type  1   force =     0.00003799    0.00029424    0.00054832
     atom    3 type  1   force =     0.00003750    0.00083421   -0.00154303
     atom    4 type  1   force =     0.00003584   -0.00126828    0.00007712
     atom    5 type  1   force =    -0.00003503    0.00125954   -0.00014688
     atom    6 type  1   force =    -0.00003810   -0.00088566    0.00151068
     atom    7 type  1   force =    -0.00003784   -0.00024710   -0.00054846
     atom    8 type  1   force =    -0.00001022   -0.00517039    0.02403272
     atom    9 type  1   force =    -0.00003888    0.00288005    0.05490782
     atom   10 type  1   force =     0.00003978   -0.00286942   -0.05485755
     atom   11 type  1   force =     0.00001066    0.00516090   -0.02396898
     atom   12 type  1   force =     0.00003865    0.00029515    0.00054835
     atom   13 type  1   force =     0.00003750    0.00083449   -0.00154337
     atom   14 type  1   force =     0.00003480   -0.00126830    0.00007663
     atom   15 type  1   force =    -0.00003471    0.00126001   -0.00014718
     atom   16 type  1   force =    -0.00003716   -0.00088486    0.00151230
     atom   17 type  1   force =    -0.00003814   -0.00024754   -0.00054882
     atom   18 type  1   force =    -0.00001215   -0.00517102    0.02403177
     atom   19 type  1   force =    -0.00003966    0.00287853    0.05491005
     atom   20 type  1   force =     0.00003813   -0.00286975   -0.05485780
     The ionic contribution  to forces
     atom    1 type  1   force =    -0.00009158    0.06289033   -9.57127499
     atom    2 type  1   force =    -0.00022079   -0.04714924   -6.27088023
     atom    3 type  1   force =     0.00002529    0.02436028   -4.27563063
     atom    4 type  1   force =    -0.00002821   -0.01169334   -1.07034994
     atom    5 type  1   force =     0.00003357    0.01218199    1.06996261
     atom    6 type  1   force =    -0.00003902   -0.02479313    4.27397105
     atom    7 type  1   force =     0.00022225    0.04783788    6.27211193
     atom    8 type  1   force =     0.00011333   -0.06339721    9.57071327
     atom    9 type  1   force =     0.00003569    0.03575529   11.09992501
     atom   10 type  1   force =    -0.00001833   -0.03599050  -11.09858706
     atom   11 type  1   force =    -0.00010167    0.06288664   -9.57131142
     atom   12 type  1   force =    -0.00021186   -0.04714183   -6.27087642
     atom   13 type  1   force =     0.00003614    0.02436190   -4.27561091
     atom   14 type  1   force =    -0.00004505   -0.01168840   -1.07033144
     atom   15 type  1   force =     0.00003724    0.01218592    1.06999323
     atom   16 type  1   force =    -0.00002239   -0.02479480    4.27401310
     atom   17 type  1   force =     0.00020938    0.04783812    6.27205769
     atom   18 type  1   force =     0.00008173   -0.06339788    9.57068314
     atom   19 type  1   force =     0.00002603    0.03574434   11.09998591
     atom   20 type  1   force =    -0.00004175   -0.03599636  -11.09856390
     The local contribution  to forces
     atom    1 type  1   force =     0.00008031   -0.05650284    9.53327762
     atom    2 type  1   force =     0.00018262    0.04279693    6.23258961
     atom    3 type  1   force =    -0.00006434   -0.02378029    4.25273070
     atom    4 type  1   force =    -0.00000382    0.01301176    1.06337773
     atom    5 type  1   force =    -0.00000202   -0.01345111   -1.06319580
     atom    6 type  1   force =     0.00007833    0.02426825   -4.25128669
     atom    7 type  1   force =    -0.00018466   -0.04351012   -6.23406046
     atom    8 type  1   force =    -0.00010229    0.05699115   -9.53297708
     atom    9 type  1   force =     0.00000282   -0.02931091  -11.13287163
     atom   10 type  1   force =    -0.00002027    0.02951870   11.13132941
     atom   11 type  1   force =     0.00009074   -0.05649871    9.53331528
     atom   12 type  1   force =     0.00017338    0.04278914    6.23258554
     atom   13 type  1   force =    -0.00007540   -0.02378251    4.25271085
     atom   14 type  1   force =     0.00001320    0.01300749    1.06335963
     atom   15 type  1   force =    -0.00000582   -0.01345506   -1.06322643
     atom   16 type  1   force =     0.00006166    0.02426866   -4.25133031
     atom   17 type  1   force =    -0.00017110   -0.04350927   -6.23400610
     atom   18 type  1   force =    -0.00006993    0.05699316   -9.53294655
     atom   19 type  1   force =     0.00001268   -0.02929875  -11.13294141
     atom   20 type  1   force =     0.00000381    0.02952507   11.13130464
     The core correction contribution to forces
     atom    1 type  1   force =     0.00000000    0.00000000    0.00000000
     atom    2 type  1   force =     0.00000000    0.00000000    0.00000000
     atom    3 type  1   force =     0.00000000    0.00000000    0.00000000
     atom    4 type  1   force =     0.00000000    0.00000000    0.00000000
     atom    5 type  1   force =     0.00000000    0.00000000    0.00000000
     atom    6 type  1   force =     0.00000000    0.00000000    0.00000000
     atom    7 type  1   force =     0.00000000    0.00000000    0.00000000
     atom    8 type  1   force =     0.00000000    0.00000000    0.00000000
     atom    9 type  1   force =     0.00000000    0.00000000    0.00000000
     atom   10 type  1   force =     0.00000000    0.00000000    0.00000000
     atom   11 type  1   force =     0.00000000    0.00000000    0.00000000
     atom   12 type  1   force =     0.00000000    0.00000000    0.00000000
     atom   13 type  1   force =     0.00000000    0.00000000    0.00000000
     atom   14 type  1   force =     0.00000000    0.00000000    0.00000000
     atom   15 type  1   force =     0.00000000    0.00000000    0.00000000
     atom   16 type  1   force =     0.00000000    0.00000000    0.00000000
     atom   17 type  1   force =     0.00000000    0.00000000    0.00000000
     atom   18 type  1   force =     0.00000000    0.00000000    0.00000000
     atom   19 type  1   force =     0.00000000    0.00000000    0.00000000
     atom   20 type  1   force =     0.00000000    0.00000000    0.00000000
     The Hubbard contrib.    to forces
     atom    1 type  1   force =     0.00000000    0.00000000    0.00000000
     atom    2 type  1   force =     0.00000000    0.00000000    0.00000000
     atom    3 type  1   force =     0.00000000    0.00000000    0.00000000
     atom    4 type  1   force =     0.00000000    0.00000000    0.00000000
     atom    5 type  1   force =     0.00000000    0.00000000    0.00000000
     atom    6 type  1   force =     0.00000000    0.00000000    0.00000000
     atom    7 type  1   force =     0.00000000    0.00000000    0.00000000
     atom    8 type  1   force =     0.00000000    0.00000000    0.00000000
     atom    9 type  1   force =     0.00000000    0.00000000    0.00000000
     atom   10 type  1   force =     0.00000000    0.00000000    0.00000000
     atom   11 type  1   force =     0.00000000    0.00000000    0.00000000
     atom   12 type  1   force =     0.00000000    0.00000000    0.00000000
     atom   13 type  1   force =     0.00000000    0.00000000    0.00000000
     atom   14 type  1   force =     0.00000000    0.00000000    0.00000000
     atom   15 type  1   force =     0.00000000    0.00000000    0.00000000
     atom   16 type  1   force =     0.00000000    0.00000000    0.00000000
     atom   17 type  1   force =     0.00000000    0.00000000    0.00000000
     atom   18 type  1   force =     0.00000000    0.00000000    0.00000000
     atom   19 type  1   force =     0.00000000    0.00000000    0.00000000
     atom   20 type  1   force =     0.00000000    0.00000000    0.00000000
     The SCF correction term to forces
     atom    1 type  1   force =    -0.00000003   -0.00000055   -0.00000977
     atom    2 type  1   force =     0.00000001    0.00000052    0.00000010
     atom    3 type  1   force =    -0.00000000    0.00000005    0.00000096
     atom    4 type  1   force =     0.00000002   -0.00000057   -0.00000024
     atom    5 type  1   force =    -0.00000003    0.00000053    0.00000019
     atom    6 type  1   force =    -0.00000001   -0.00000006   -0.00000095
     atom    7 type  1   force =     0.00000000   -0.00000042   -0.00000022
     atom    8 type  1   force =     0.00000001    0.00000048    0.00001003
     atom    9 type  1   force =    -0.00000003    0.00000015   -0.00001878
     atom   10 type  1   force =    -0.00000005   -0.00000017    0.00002009
     atom   11 type  1   force =    -0.00000003   -0.00000054   -0.00000977
     atom   12 type  1   force =     0.00000001    0.00000052    0.00000010
     atom   13 type  1   force =    -0.00000000    0.00000005    0.00000096
     atom   14 type  1   force =     0.00000001   -0.00000057   -0.00000023
     atom   15 type  1   force =    -0.00000003    0.00000054    0.00000020
     atom   16 type  1   force =    -0.00000002   -0.00000007   -0.00000093
     atom   17 type  1   force =    -0.00000001   -0.00000043   -0.00000022
     atom   18 type  1   force =     0.00000000    0.00000048    0.00001001
     atom   19 type  1   force =    -0.00000003    0.00000020   -0.00001862
     atom   20 type  1   force =    -0.00000007   -0.00000017    0.00002006

     Total force =     0.000550     Total SCF correction =     0.000044
     Energy error            =      3.5E-06 Ry
     Gradient error          =      1.6E-04 Ry/Bohr

     bfgs converged in  32 scf cycles and  31 bfgs steps
     (criteria: energy <  1.0E-05 Ry, force <  3.9E-04 Ry/Bohr)

     End of BFGS Geometry Optimization

     Final energy             =    -300.7248447781 Ry

     File ./Li/Lithium.bfgs deleted, as requested
Begin final coordinates

ATOMIC_POSITIONS (angstrom)
Li               1.7197102346        2.2109625671       20.9669776413
Li               0.0021656059        4.2973847150       22.3525284831
Li               0.0009846475        1.1342880005       23.1746939523
Li               1.7182290376        3.1933445202       24.5202690368
Li               1.7169246868        0.0635397805       25.4143214659
Li              -0.0009707241        2.1239222672       26.7583695121
Li               1.7154184177        4.3922314313       27.5810115178
Li               1.7154334117        1.0495031571       28.9642352019
Li              -0.0024742371        3.4737213507       29.8277390533
Li               3.4376129876       -0.2130605111       20.1037892650
Li               5.1548611193        2.2109679754       20.9669580619
Li               3.4373149928        4.2973777363       22.3525315806
Li               3.4361502174        1.1342968503       23.1747057298
Li               5.1534003986        3.1933310999       24.5202783493
Li               5.1520744134        0.0635360363       25.4143360031
Li               3.4341509184        2.1239363298       26.7583841111
Li               5.1505728520        4.3921976991       27.5809902787
Li               5.1506193076        1.0495023286       28.9642253647
Li               3.4326930341        3.4737335524       29.8277998993
Li               6.8727872817       -0.2130391120       20.1038103762
End final coordinates

     Writing all to output data dir ./Li/Lithium.save/ :
     XML data file

     General routines

     Parallel routines

     PAW routines

     Environ routines

   This run was terminated on:  14:55: 0   3Jan2025

   JOB DONE.