     Program PWSCF v.7.4 starts on 21Jan2025 at 10:53:45

     Reading input from espresso.pwi
Warning: card &CELL ignored
Warning: card    PRESS_CONV_THR   = 0.1 ignored
Warning: card    CELL_DOFREE      = 'ALL' ignored
Warning: card / ignored
Warning: card &FCP ignored
Warning: card / ignored
Warning: card &RISM ignored
Warning: card / ignored

     Current dimensions of program PWSCF are:
     Max number of different atomic species (ntypx) = 10
     Max number of k-points (npk) =  40000
     Max angular momentum in pseudopotentials (lmaxx) =  4

     IMPORTANT: XC functional enforced from input :
     Exchange-correlation= PBE
                           (   1   4   3   4   0   0   0)
     Any further DFT definition will be discarded
     Please, verify this is what you really want

     Reading input from environ.in:
     * using ionic solvent mode
     * setting boundary derivatives method to SSCS default
     * setting electrolyte-boundary derivatives method to SSCS default

Environ Warning (1001): card EOF ignored

     Found identity + (  0.0000  0.5000  0.0000) symmetry
     This is a supercell, fractional translations are disabled

     K-points division:     npool     =       2
     R & G space division:  proc/nbgrp/npool/nimage =     192
     Subspace diagonalization in iterative solution of the eigenvalue problem:
     a serial algorithm will be used

     Using Slab Decomposition

     bravais-lattice index     =            6
     lattice parameter (alat)  =      12.9830  a.u.
     unit-cell volume          =   16640.2915 (a.u.)^3
     number of atoms/cell      =           32
     number of atomic types    =            1
     number of electrons       =        96.00
     number of Kohn-Sham states=           72
     kinetic-energy cutoff     =      80.0000  Ry
     charge density cutoff     =     800.0000  Ry
     scf convergence threshold =      1.0E-16
     mixing beta               =       0.2000
     number of iterations used =            8  local-TF  mixing
     Exchange-correlation= PBE
                           (   1   4   3   4   0   0   0)

                                  Environ Setup Summary

          O. Andreussi, I. Dabo and N. Marzari, J. Chem. Phys. 136, 064102 (2012)
          F. Nattino, M. Truscott, N. Marzari, and O. Andreussi, J. Chem. Phys. 150, 041722 (2019)

     in publications or presentations arising from this work.

     Parameters

     compensation onset threshold      =               0.1000E+00
     static permittivity               =                    89.90
     surface tension in input (dyn/cm) =                    37.30
     surface tension in internal units =               0.4792E-04

     Solvent Boundary

     solvent mode                      =                    ionic
     derivatives method                =                   lowmem
     electrolyte derivatives method    =                   lowmem
     numerical core for derivatives    =                      fft
     switching function adopted        =                     SCCS
     density limit for vacuum region   =               0.5000E-02
     density limit for bulk solvent    =               0.1000E-03
     soft-sphere radius mode           =                    bondi
     soft-sphere softness              =                     0.50
     alpha                             =                     1.32

     Electrostatic Setup

     electrostatic problem to solve    =                    modpb
     numerical solver adopted          =                   newton
     type of auxiliary density adopted =                     none
     numerical core for poisson        =                      fft
     adopting a nested solver scheme
     inner solver                      =                       cg
     inner core                        =                      fft
     type of pbc corrections           =                parabolic
     numerical core for corrections    =                      1da

     >>>>> Grand-Canonical SCF is activated <<<<<
     Initial Total Charge  =     0.000000 e
     Target Fermi Energy   =    -5.404000 eV
     Thr. of Fermi Energy  =     0.001000 eV
     Wave-shift of Kerker  =     0.400000 bohr^-1
     Wave-shift of Hartree =     1.500000 bohr^-1
     Mixing Rate of Fermi  =     0.050000

     celldm(1)=  12.983009  celldm(2)=   0.000000  celldm(3)=   7.603873
     celldm(4)=   0.000000  celldm(5)=   0.000000  celldm(6)=   0.000000

     crystal axes: (cart. coord. in units of alat)
               a(1) = (   1.000000   0.000000   0.000000 )
               a(2) = (   0.000000   1.000000   0.000000 )
               a(3) = (   0.000000   0.000000   7.603873 )

     reciprocal axes: (cart. coord. in units 2 pi/alat)
               b(1) = (  1.000000  0.000000  0.000000 )
               b(2) = (  0.000000  1.000000  0.000000 )
               b(3) = (  0.000000  0.000000  0.131512 )

     PseudoPot. # 1 for Li read from file:
     /work/e89/e89/ba3g18/Repos/Pseudopotentials/Pslibrary/Li.pbe-sl-kjpaw_psl.1.0.0.UPF
     MD5 check sum: 3f4d2cafebb47c6c3aa8ed472e6f074d
     Pseudo is Projector augmented-wave, Zval =  3.0
     Generated using 'atomic' code by A. Dal Corso  v.7.4
     Shape of augmentation charge: PSQ
     Using radial grid of 1017 points,  4 beta functions with:
                l(1) =   0
                l(2) =   0
                l(3) =   1
                l(4) =   1
     Q(r) pseudized with 0 coefficients

     atomic species   valence    mass     pseudopotential
     Li                3.00     6.94000     Li( 1.00)

      8 Sym. Ops. (no inversion) found

                                    s                        frac. trans.

      isym =  1     identity

 cryst.   s( 1) = (     1          0          0      )
                  (     0          1          0      )
                  (     0          0          1      )

 cart.    s( 1) = (  1.0000000  0.0000000  0.0000000 )
                  (  0.0000000  1.0000000  0.0000000 )
                  (  0.0000000  0.0000000  1.0000000 )

      isym =  2     180 deg rotation - cart. axis [0,0,1]

[...]

      isym =  4      90 deg rotation - cart. axis [0,0,1]

[...]

      isym =  5     inv. 180 deg rotation - cart. axis [0,1,0]

[...]

      isym =  8     inv. 180 deg rotation - cart. axis [1,-1,0]

 cryst.   s( 8) = (     0          1          0      )
                  (     1          0          0      )
                  (     0          0          1      )

 cart.    s( 8) = (  0.0000000  1.0000000  0.0000000 )
                  (  1.0000000  0.0000000  0.0000000 )
                  (  0.0000000  0.0000000  1.0000000 )

     point group C_4v (4mm)
     there are  5 classes
     the character table:

       E     2C4   C2    2s_v  2s_d
A_1    1.00  1.00  1.00  1.00  1.00
A_2    1.00  1.00  1.00 -1.00 -1.00
B_1    1.00 -1.00  1.00  1.00 -1.00
B_2    1.00 -1.00  1.00 -1.00  1.00
E      2.00  0.00 -2.00  0.00  0.00

     the symmetry operations in each class and the name of the first element:

     E        1
          identity
     2C4      3    4
           90 deg rotation - cart. axis [0,0,-1]
     C2       2
          180 deg rotation - cart. axis [0,0,1]
     2s_v     5    6
          inv. 180 deg rotation - cart. axis [0,1,0]
     2s_d     7    8
          inv. 180 deg rotation - cart. axis [1,1,0]

   Cartesian axes

     site n.     atom                  positions (alat units)
         1        Li     tau(   1) = (  -0.0000000  -0.0000000   3.1756237  )
         2        Li     tau(   2) = (   0.2500000   0.2500000   2.8777192  )
         3        Li     tau(   3) = (  -0.0000000  -0.0000000   3.6723870  )
         4        Li     tau(   4) = (   0.2499995   0.2499995   3.4172246  )
         5        Li     tau(   5) = (  -0.0000000  -0.0000000   4.1867114  )
         6        Li     tau(   6) = (   0.2500017   0.2500017   3.9315747  )
         7        Li     tau(   7) = (  -0.0000000  -0.0000000   4.7260903  )
         8        Li     tau(   8) = (   0.2499970   0.2499970   4.4282342  )
         9        Li     tau(   9) = (  -0.0000000   0.5000000   3.1756241  )
        10        Li     tau(  10) = (   0.2500000   0.7500000   2.8777192  )
        11        Li     tau(  11) = (  -0.0000000   0.5000000   3.6723852  )
        12        Li     tau(  12) = (   0.2499995   0.7500004   3.4172246  )
        13        Li     tau(  13) = (  -0.0000000   0.5000000   4.1867173  )
        14        Li     tau(  14) = (   0.2500017   0.7499983   3.9315747  )
        15        Li     tau(  15) = (  -0.0000000   0.5000000   4.7260846  )
        16        Li     tau(  16) = (   0.2499970   0.7500030   4.4282342  )
        17        Li     tau(  17) = (   0.5000000  -0.0000000   3.1756241  )
        18        Li     tau(  18) = (   0.7500000   0.2500000   2.8777192  )
        19        Li     tau(  19) = (   0.5000000  -0.0000000   3.6723852  )
        20        Li     tau(  20) = (   0.7500004   0.2499995   3.4172246  )
        21        Li     tau(  21) = (   0.5000000  -0.0000000   4.1867173  )
        22        Li     tau(  22) = (   0.7499983   0.2500017   3.9315747  )
        23        Li     tau(  23) = (   0.5000000  -0.0000000   4.7260846  )
        24        Li     tau(  24) = (   0.7500030   0.2499970   4.4282342  )
        25        Li     tau(  25) = (   0.5000000   0.5000000   3.1756246  )
        26        Li     tau(  26) = (   0.7500000   0.7500000   2.8777192  )
        27        Li     tau(  27) = (   0.5000000   0.5000000   3.6723836  )
        28        Li     tau(  28) = (   0.7500004   0.7500004   3.4172246  )
        29        Li     tau(  29) = (   0.5000000   0.5000000   4.1867231  )
        30        Li     tau(  30) = (   0.7499983   0.7499983   3.9315747  )
        31        Li     tau(  31) = (   0.5000000   0.5000000   4.7260770  )
        32        Li     tau(  32) = (   0.7500030   0.7500030   4.4282342  )

   Crystallographic axes

     site n.     atom                  positions (cryst. coord.)
         1        Li     tau(   1) = ( -0.0000000 -0.0000000  0.4176324  )
         2        Li     tau(   2) = (  0.2500000  0.2500000  0.3784544  )
         3        Li     tau(   3) = ( -0.0000000 -0.0000000  0.4829627  )
         4        Li     tau(   4) = (  0.2499995  0.2499995  0.4494058  )
         5        Li     tau(   5) = ( -0.0000000 -0.0000000  0.5506025  )
         6        Li     tau(   6) = (  0.2500017  0.2500017  0.5170490  )
         7        Li     tau(   7) = ( -0.0000000 -0.0000000  0.6215372  )
         8        Li     tau(   8) = (  0.2499970  0.2499970  0.5823656  )
         9        Li     tau(   9) = ( -0.0000000  0.5000000  0.4176325  )
        10        Li     tau(  10) = (  0.2500000  0.7500000  0.3784544  )
        11        Li     tau(  11) = ( -0.0000000  0.5000000  0.4829625  )
        12        Li     tau(  12) = (  0.2499995  0.7500004  0.4494058  )
        13        Li     tau(  13) = ( -0.0000000  0.5000000  0.5506033  )
        14        Li     tau(  14) = (  0.2500017  0.7499983  0.5170490  )
        15        Li     tau(  15) = ( -0.0000000  0.5000000  0.6215365  )
        16        Li     tau(  16) = (  0.2499970  0.7500030  0.5823656  )
[...]
     atom   12 type  1   force =    -0.00000001    0.00000001   -0.00007374
     atom   13 type  1   force =     0.00000000    0.00000000    0.00006955
     atom   14 type  1   force =     0.00000002   -0.00000002   -0.00000154
     atom   15 type  1   force =     0.00000000    0.00000000    0.00179517
     atom   16 type  1   force =    -0.00000006    0.00000006   -0.00073806
     atom   17 type  1   force =     0.00000000    0.00000000    0.00074086
     atom   18 type  1   force =    -0.00000001    0.00000001   -0.00178832
     atom   19 type  1   force =     0.00000000    0.00000000   -0.00000391
     atom   20 type  1   force =     0.00000001   -0.00000001   -0.00007374
     atom   21 type  1   force =     0.00000000    0.00000000    0.00006955
     atom   22 type  1   force =    -0.00000002    0.00000002   -0.00000154
     atom   23 type  1   force =     0.00000000    0.00000000    0.00179517
     atom   24 type  1   force =     0.00000006   -0.00000006   -0.00073806
     atom   25 type  1   force =     0.00000000    0.00000000    0.00074084
     atom   26 type  1   force =    -0.00000001   -0.00000001   -0.00178832
     atom   27 type  1   force =     0.00000000    0.00000000   -0.00000398
     atom   28 type  1   force =     0.00000001    0.00000001   -0.00007374
     atom   29 type  1   force =     0.00000000    0.00000000    0.00006962
     atom   30 type  1   force =    -0.00000002   -0.00000002   -0.00000154
     atom   31 type  1   force =     0.00000000    0.00000000    0.00179488
     atom   32 type  1   force =     0.00000006    0.00000006   -0.00073806
     The non-local contrib.  to forces
     atom    1 type  1   force =     0.00000000    0.00000000   -0.00670932
     atom    2 type  1   force =     0.00000009    0.00000009   -0.07577184
     atom    3 type  1   force =     0.00000000    0.00000000    0.00850207
     atom    4 type  1   force =    -0.00000010   -0.00000010   -0.00495078
     atom    5 type  1   force =     0.00000000    0.00000000    0.00493767
     atom    6 type  1   force =     0.00000016    0.00000016   -0.00851454
     atom    7 type  1   force =     0.00000000    0.00000000    0.07579034
     atom    8 type  1   force =     0.00000019    0.00000019    0.00671977
     atom    9 type  1   force =     0.00000000    0.00000000   -0.00670923
     atom   10 type  1   force =     0.00000009   -0.00000009   -0.07577184
     atom   11 type  1   force =     0.00000000    0.00000000    0.00850209
     atom   12 type  1   force =    -0.00000010    0.00000010   -0.00495078
     atom   13 type  1   force =     0.00000000    0.00000000    0.00493786
     atom   14 type  1   force =     0.00000016   -0.00000016   -0.00851454
     atom   15 type  1   force =     0.00000000    0.00000000    0.07579041
     atom   16 type  1   force =     0.00000019   -0.00000019    0.00671977
     atom   17 type  1   force =     0.00000000    0.00000000   -0.00670923
     atom   18 type  1   force =    -0.00000009    0.00000009   -0.07577184
     atom   19 type  1   force =     0.00000000    0.00000000    0.00850209
     atom   20 type  1   force =     0.00000010   -0.00000010   -0.00495078
     atom   21 type  1   force =     0.00000000    0.00000000    0.00493786
     atom   22 type  1   force =    -0.00000016    0.00000016   -0.00851454
     atom   23 type  1   force =     0.00000000    0.00000000    0.07579041
     atom   24 type  1   force =    -0.00000019    0.00000019    0.00671977
     atom   25 type  1   force =     0.00000000    0.00000000   -0.00670914
     atom   26 type  1   force =    -0.00000009   -0.00000009   -0.07577184
     atom   27 type  1   force =     0.00000000    0.00000000    0.00850202
     atom   28 type  1   force =     0.00000010    0.00000010   -0.00495078
     atom   29 type  1   force =     0.00000000    0.00000000    0.00493768
     atom   30 type  1   force =    -0.00000016   -0.00000016   -0.00851454
     atom   31 type  1   force =     0.00000000    0.00000000    0.07579097
     atom   32 type  1   force =    -0.00000019   -0.00000019    0.00671977
     The ionic contribution  to forces
     atom    1 type  1   force =    -0.00000001   -0.00000001   -9.73647022
     atom    2 type  1   force =     0.00000135    0.00000135  -13.38123123
     atom    3 type  1   force =    -0.00000001   -0.00000001   -1.96072502
     atom    4 type  1   force =    -0.00000075   -0.00000075   -5.93244450
     atom    5 type  1   force =    -0.00000000   -0.00000000    5.93230621
     atom    6 type  1   force =     0.00000203    0.00000203    1.96038916
     atom    7 type  1   force =    -0.00000001   -0.00000001   13.38167218
     atom    8 type  1   force =     0.00000599    0.00000599    9.73647719
     atom    9 type  1   force =    -0.00000001    0.00000001   -9.73646576
     atom   10 type  1   force =     0.00000135   -0.00000135  -13.38123121
     atom   11 type  1   force =    -0.00000001    0.00000001   -1.96074995
     atom   12 type  1   force =    -0.00000075    0.00000075   -5.93244451
     atom   13 type  1   force =    -0.00000000   -0.00000000    5.93239938
     atom   14 type  1   force =     0.00000203   -0.00000203    1.96038916
     atom   15 type  1   force =    -0.00000001    0.00000001   13.38162900
     atom   16 type  1   force =     0.00000599   -0.00000599    9.73647722
     atom   17 type  1   force =     0.00000001   -0.00000001   -9.73646576
     atom   18 type  1   force =    -0.00000135    0.00000135  -13.38123121
     atom   19 type  1   force =     0.00000001   -0.00000001   -1.96074995
     atom   20 type  1   force =     0.00000075   -0.00000075   -5.93244451
     atom   21 type  1   force =    -0.00000000   -0.00000000    5.93239938
     atom   22 type  1   force =    -0.00000203    0.00000203    1.96038916
     atom   23 type  1   force =     0.00000001   -0.00000001   13.38162900
     atom   24 type  1   force =    -0.00000599    0.00000599    9.73647722
     atom   25 type  1   force =     0.00000001    0.00000001   -9.73646089
     atom   26 type  1   force =    -0.00000135   -0.00000135  -13.38123119
     atom   27 type  1   force =     0.00000001    0.00000001   -1.96077406
     atom   28 type  1   force =     0.00000075    0.00000075   -5.93244452
     atom   29 type  1   force =    -0.00000000   -0.00000000    5.93249051
     atom   30 type  1   force =    -0.00000203   -0.00000203    1.96038915
     atom   31 type  1   force =     0.00000001    0.00000001   13.38157334
     atom   32 type  1   force =    -0.00000599   -0.00000599    9.73647723
     The local contribution  to forces
     atom    1 type  1   force =     0.00000407    0.00000407    9.85014056
     atom    2 type  1   force =     0.00000325    0.00000325   13.52885826
     atom    3 type  1   force =     0.00000407    0.00000407    1.97391190
     atom    4 type  1   force =     0.00000553    0.00000553    6.00203291
     atom    5 type  1   force =     0.00000406    0.00000406   -6.00187792
     atom    6 type  1   force =     0.00000222    0.00000222   -1.97356293
     atom    7 type  1   force =     0.00000350    0.00000350  -13.52929956
     atom    8 type  1   force =    -0.00000212   -0.00000212   -9.85013935
     atom    9 type  1   force =     0.00000407    0.00000499    9.85013600
     atom   10 type  1   force =     0.00000325    0.00000618   13.52885708
     atom   11 type  1   force =     0.00000407    0.00000441    1.97393706
     atom   12 type  1   force =     0.00000553    0.00000386    6.00203352
     atom   13 type  1   force =     0.00000406    0.00000383   -6.00197228
     atom   14 type  1   force =     0.00000222    0.00000660   -1.97356293
     atom   15 type  1   force =     0.00000350    0.00000442  -13.52926026
     atom   16 type  1   force =    -0.00000212    0.00001094   -9.85013995
     atom   17 type  1   force =     0.00000499    0.00000407    9.85013600
     atom   18 type  1   force =     0.00000618    0.00000325   13.52885708
     atom   19 type  1   force =     0.00000441    0.00000407    1.97393706
     atom   20 type  1   force =     0.00000386    0.00000553    6.00203352
     atom   21 type  1   force =     0.00000383    0.00000406   -6.00197228
     atom   22 type  1   force =     0.00000660    0.00000222   -1.97356293
     atom   23 type  1   force =     0.00000442    0.00000350  -13.52926026
     atom   24 type  1   force =     0.00001094   -0.00000212   -9.85013995
     atom   25 type  1   force =     0.00000499    0.00000499    9.85013098
     atom   26 type  1   force =     0.00000618    0.00000618   13.52885648
     atom   27 type  1   force =     0.00000441    0.00000441    1.97396143
     atom   28 type  1   force =     0.00000386    0.00000386    6.00203352
     atom   29 type  1   force =     0.00000383    0.00000383   -6.00206423
     atom   30 type  1   force =     0.00000660    0.00000660   -1.97356293
     atom   31 type  1   force =     0.00000442    0.00000442  -13.52921023
     atom   32 type  1   force =     0.00001094    0.00001094   -9.85013995
     The core correction contribution to forces
     atom    1 type  1   force =     0.00000000    0.00000000    0.00000000
     atom    2 type  1   force =     0.00000000    0.00000000    0.00000000
     atom    3 type  1   force =     0.00000000    0.00000000    0.00000000
     atom    4 type  1   force =     0.00000000    0.00000000    0.00000000
     atom    5 type  1   force =     0.00000000    0.00000000    0.00000000
     atom    6 type  1   force =     0.00000000    0.00000000    0.00000000
     atom    7 type  1   force =     0.00000000    0.00000000    0.00000000
     atom    8 type  1   force =     0.00000000    0.00000000    0.00000000
     atom    9 type  1   force =     0.00000000    0.00000000    0.00000000
     atom   10 type  1   force =     0.00000000    0.00000000    0.00000000
     atom   11 type  1   force =     0.00000000    0.00000000    0.00000000
     atom   12 type  1   force =     0.00000000    0.00000000    0.00000000
     atom   13 type  1   force =     0.00000000    0.00000000    0.00000000
     atom   14 type  1   force =     0.00000000    0.00000000    0.00000000
     atom   15 type  1   force =     0.00000000    0.00000000    0.00000000
     atom   16 type  1   force =     0.00000000    0.00000000    0.00000000
     atom   17 type  1   force =     0.00000000    0.00000000    0.00000000
     atom   18 type  1   force =     0.00000000    0.00000000    0.00000000
     atom   19 type  1   force =     0.00000000    0.00000000    0.00000000
     atom   20 type  1   force =     0.00000000    0.00000000    0.00000000
     atom   21 type  1   force =     0.00000000    0.00000000    0.00000000
     atom   22 type  1   force =     0.00000000    0.00000000    0.00000000
     atom   23 type  1   force =     0.00000000    0.00000000    0.00000000
     atom   24 type  1   force =     0.00000000    0.00000000    0.00000000
     atom   25 type  1   force =     0.00000000    0.00000000    0.00000000
     atom   26 type  1   force =     0.00000000    0.00000000    0.00000000
     atom   27 type  1   force =     0.00000000    0.00000000    0.00000000
     atom   28 type  1   force =     0.00000000    0.00000000    0.00000000
     atom   29 type  1   force =     0.00000000    0.00000000    0.00000000
     atom   30 type  1   force =     0.00000000    0.00000000    0.00000000
     atom   31 type  1   force =     0.00000000    0.00000000    0.00000000
     atom   32 type  1   force =     0.00000000    0.00000000    0.00000000
     The Hubbard contrib.    to forces
     atom    1 type  1   force =     0.00000000    0.00000000    0.00000000
     atom    2 type  1   force =     0.00000000    0.00000000    0.00000000
     atom    3 type  1   force =     0.00000000    0.00000000    0.00000000
     atom    4 type  1   force =     0.00000000    0.00000000    0.00000000
     atom    5 type  1   force =     0.00000000    0.00000000    0.00000000
     atom    6 type  1   force =     0.00000000    0.00000000    0.00000000
     atom    7 type  1   force =     0.00000000    0.00000000    0.00000000
     atom    8 type  1   force =     0.00000000    0.00000000    0.00000000
     atom    9 type  1   force =     0.00000000    0.00000000    0.00000000
     atom   10 type  1   force =     0.00000000    0.00000000    0.00000000
     atom   11 type  1   force =     0.00000000    0.00000000    0.00000000
     atom   12 type  1   force =     0.00000000    0.00000000    0.00000000
     atom   13 type  1   force =     0.00000000    0.00000000    0.00000000
     atom   14 type  1   force =     0.00000000    0.00000000    0.00000000
     atom   15 type  1   force =     0.00000000    0.00000000    0.00000000
     atom   16 type  1   force =     0.00000000    0.00000000    0.00000000
     atom   17 type  1   force =     0.00000000    0.00000000    0.00000000
     atom   18 type  1   force =     0.00000000    0.00000000    0.00000000
     atom   19 type  1   force =     0.00000000    0.00000000    0.00000000
     atom   20 type  1   force =     0.00000000    0.00000000    0.00000000
     atom   21 type  1   force =     0.00000000    0.00000000    0.00000000
     atom   22 type  1   force =     0.00000000    0.00000000    0.00000000
     atom   23 type  1   force =     0.00000000    0.00000000    0.00000000
     atom   24 type  1   force =     0.00000000    0.00000000    0.00000000
     atom   25 type  1   force =     0.00000000    0.00000000    0.00000000
     atom   26 type  1   force =     0.00000000    0.00000000    0.00000000
     atom   27 type  1   force =     0.00000000    0.00000000    0.00000000
     atom   28 type  1   force =     0.00000000    0.00000000    0.00000000
     atom   29 type  1   force =     0.00000000    0.00000000    0.00000000
     atom   30 type  1   force =     0.00000000    0.00000000    0.00000000
     atom   31 type  1   force =     0.00000000    0.00000000    0.00000000
     atom   32 type  1   force =     0.00000000    0.00000000    0.00000000
     The SCF correction term to forces
     atom    1 type  1   force =     0.00000000    0.00000000   -0.00000000
     atom    2 type  1   force =     0.00000000    0.00000000   -0.00000001
     atom    3 type  1   force =     0.00000000    0.00000000    0.00000000
     atom    4 type  1   force =     0.00000000    0.00000000    0.00000000
     atom    5 type  1   force =     0.00000000    0.00000000   -0.00000000
     atom    6 type  1   force =     0.00000000    0.00000000    0.00000000
     atom    7 type  1   force =     0.00000000   -0.00000000    0.00000001
     atom    8 type  1   force =    -0.00000000   -0.00000000    0.00000000
     atom    9 type  1   force =    -0.00000000   -0.00000000   -0.00000000
     atom   10 type  1   force =     0.00000000   -0.00000000   -0.00000001
     atom   11 type  1   force =    -0.00000000   -0.00000000    0.00000000
     atom   12 type  1   force =     0.00000000   -0.00000000    0.00000000
     atom   13 type  1   force =     0.00000000   -0.00000000   -0.00000000
     atom   14 type  1   force =     0.00000000   -0.00000000    0.00000000
     atom   15 type  1   force =     0.00000000    0.00000000    0.00000001
     atom   16 type  1   force =    -0.00000000    0.00000000    0.00000000
     atom   17 type  1   force =     0.00000000   -0.00000000   -0.00000000
     atom   18 type  1   force =    -0.00000000    0.00000000   -0.00000001
     atom   19 type  1   force =    -0.00000000   -0.00000000    0.00000000
     atom   20 type  1   force =    -0.00000000    0.00000000    0.00000000
     atom   21 type  1   force =     0.00000000   -0.00000000   -0.00000000
     atom   22 type  1   force =    -0.00000000    0.00000000    0.00000000
     atom   23 type  1   force =     0.00000000   -0.00000000    0.00000001
     atom   24 type  1   force =     0.00000000   -0.00000000    0.00000000
     atom   25 type  1   force =    -0.00000000    0.00000000   -0.00000000
     atom   26 type  1   force =    -0.00000000   -0.00000000   -0.00000001
     atom   27 type  1   force =    -0.00000000   -0.00000000    0.00000000
     atom   28 type  1   force =    -0.00000000   -0.00000000    0.00000000
     atom   29 type  1   force =    -0.00000000    0.00000000   -0.00000000
     atom   30 type  1   force =    -0.00000000   -0.00000000    0.00000000
     atom   31 type  1   force =    -0.00000000    0.00000000    0.00000001
     atom   32 type  1   force =     0.00000000    0.00000000    0.00000000

     Total force =     0.005486     Total SCF correction =     0.000000

     Writing all to output data dir ./Li/Lithium.save/ :
     XML data file

     General routines

     Parallel routines

     PAW routines

     Environ routines

   This run was terminated on:  11:11:59  21Jan2025

   JOB DONE.