     Program PWSCF v.7.4 starts on  5Jan2025 at  2:34:35

     Reading input from espresso.pwi
Warning: card &CELL ignored
Warning: card    PRESS_CONV_THR   = 0.1 ignored
Warning: card    CELL_DOFREE      = 'ALL' ignored
Warning: card / ignored
Warning: card &FCP ignored
Warning: card / ignored
Warning: card &RISM ignored
Warning: card / ignored

     Current dimensions of program PWSCF are:
     Max number of different atomic species (ntypx) = 10
     Max number of k-points (npk) =  40000
     Max angular momentum in pseudopotentials (lmaxx) =  4

     IMPORTANT: XC functional enforced from input :
     Exchange-correlation= PBE
                           (   1   4   3   4   0   0   0)
     Any further DFT definition will be discarded
     Please, verify this is what you really want

     Reading input from environ.in:
     * using ionic solvent mode
     * setting boundary derivatives method to SSCS default
     * setting electrolyte-boundary derivatives method to SSCS default

Environ Warning (1001): card EOF ignored

     Found identity + (  0.5000 -0.0000  0.0000) symmetry
     This is a supercell, fractional translations are disabled

     K-points division:     npool     =       2
     R & G space division:  proc/nbgrp/npool/nimage =     192
     Subspace diagonalization in iterative solution of the eigenvalue problem:
     a serial algorithm will be used

     Using Slab Decomposition

     bravais-lattice index     =            8
     lattice parameter (alat)  =      12.9830  a.u.
     unit-cell volume          =   16814.9378 (a.u.)^3
     number of atoms/cell      =           20
     number of atomic types    =            1
     number of electrons       =        60.00
     number of Kohn-Sham states=           45
     kinetic-energy cutoff     =      80.0000  Ry
     charge density cutoff     =     800.0000  Ry
     scf convergence threshold =      1.0E-06
     mixing beta               =       0.2000
     number of iterations used =            8  local-TF  mixing
     energy convergence thresh.=      1.0E-05
     force convergence thresh. =      3.9E-04
     Exchange-correlation= PBE
                           (   1   4   3   4   0   0   0)
     nstep                     =          999

                                  Environ Setup Summary

          O. Andreussi, I. Dabo and N. Marzari, J. Chem. Phys. 136, 064102 (2012)
          F. Nattino, M. Truscott, N. Marzari, and O. Andreussi, J. Chem. Phys. 150, 041722 (2019)

     in publications or presentations arising from this work.

     Parameters

     compensation onset threshold      =               0.1000E+00
     static permittivity               =                    89.90
     surface tension in input (dyn/cm) =                    37.30
     surface tension in internal units =               0.4792E-04

     Solvent Boundary

     solvent mode                      =                    ionic
     derivatives method                =                   lowmem
     electrolyte derivatives method    =                   lowmem
     numerical core for derivatives    =                      fft
     switching function adopted        =                     SCCS
     density limit for vacuum region   =               0.5000E-02
     density limit for bulk solvent    =               0.1000E-03
     soft-sphere radius mode           =                    bondi
     soft-sphere softness              =                     0.50
     alpha                             =                     1.32

     Electrostatic Setup

     electrostatic problem to solve    =                    modpb
     numerical solver adopted          =                   newton
     type of auxiliary density adopted =                     none
     numerical core for poisson        =                      fft
     adopting a nested solver scheme
     inner solver                      =                       cg
     inner core                        =                      fft
     type of pbc corrections           =                parabolic
     numerical core for corrections    =                      1da

     >>>>> Grand-Canonical SCF is activated <<<<<
     Initial Total Charge  =     0.000000 e
     Target Fermi Energy   =    -1.404000 eV
     Thr. of Fermi Energy  =     0.001000 eV
     Wave-shift of Kerker  =     0.400000 bohr^-1
     Wave-shift of Hartree =     1.500000 bohr^-1
     Mixing Rate of Fermi  =     0.050000

     celldm(1)=  12.983009  celldm(2)=   1.118034  celldm(3)=   6.872491
     celldm(4)=   0.000000  celldm(5)=   0.000000  celldm(6)=   0.000000

     crystal axes: (cart. coord. in units of alat)
               a(1) = (   1.000000   0.000000   0.000000 )
               a(2) = (   0.000000   1.118034   0.000000 )
               a(3) = (   0.000000   0.000000   6.872491 )

     reciprocal axes: (cart. coord. in units 2 pi/alat)
               b(1) = (  1.000000  0.000000  0.000000 )
               b(2) = (  0.000000  0.894427  0.000000 )
               b(3) = (  0.000000  0.000000  0.145508 )

     PseudoPot. # 1 for Li read from file:
     /work/e89/e89/ba3g18/Repos/Pseudopotentials/Pslibrary/Li.pbe-sl-kjpaw_psl.1.0.0.UPF
     MD5 check sum: 3f4d2cafebb47c6c3aa8ed472e6f074d
     Pseudo is Projector augmented-wave, Zval =  3.0
     Generated using 'atomic' code by A. Dal Corso  v.7.4
     Shape of augmentation charge: PSQ
     Using radial grid of 1017 points,  4 beta functions with:
                l(1) =   0
                l(2) =   0
                l(3) =   1
                l(4) =   1
     Q(r) pseudized with 0 coefficients

     atomic species   valence    mass     pseudopotential
     Li                3.00     6.94000     Li( 1.00)

      2 Sym. Ops. (no inversion) found

                                    s                        frac. trans.

      isym =  1     identity

 cryst.   s( 1) = (     1          0          0      )
                  (     0          1          0      )
                  (     0          0          1      )

 cart.    s( 1) = (  1.0000000  0.0000000  0.0000000 )
                  (  0.0000000  1.0000000  0.0000000 )
                  (  0.0000000  0.0000000  1.0000000 )

      isym =  2     inv. 180 deg rotation - cart. axis [1,0,0]

 cryst.   s( 2) = (    -1          0          0      )
                  (     0          1          0      )
                  (     0          0          1      )

 cart.    s( 2) = ( -1.0000000  0.0000000  0.0000000 )
                  (  0.0000000  1.0000000  0.0000000 )
                  (  0.0000000  0.0000000  1.0000000 )

     point group C_s (m)
     there are  2 classes
     the character table:

       E     s
A'     1.00  1.00
A''    1.00 -1.00

     the symmetry operations in each class and the name of the first element:

     E        1
          identity
     s        2
          inv. 180 deg rotation - cart. axis [1,0,0]

   Cartesian axes

     site n.     atom                  positions (alat units)
         1        Li     tau(   1) = (  -0.0000000   0.4459480   3.7562735  )
         2        Li     tau(   2) = (  -0.0000000   0.9011179   3.4657145  )
         3        Li     tau(   3) = (  -0.0000000   0.2215109   3.2738878  )
         4        Li     tau(   4) = (  -0.0000000   0.6422931   3.0581967  )
         5        Li     tau(   5) = (  -0.0000000   0.0347282   3.9385922  )
         6        Li     tau(   6) = (   0.2500017   0.5524521   3.4068461  )
         7        Li     tau(   7) = (   0.2499986   1.0074069   3.1163450  )
         8        Li     tau(   8) = (   0.2499992   0.3004606   2.9340906  )
         9        Li     tau(   9) = (   0.2500008   0.8110204   3.8143270  )
        10        Li     tau(  10) = (   0.2499991   0.1142137   3.5981746  )
        11        Li     tau(  11) = (   0.5000000   0.4459476   3.7562737  )
        12        Li     tau(  12) = (   0.5000000   0.9011174   3.4657126  )
        13        Li     tau(  13) = (   0.5000000   0.2215133   3.2738846  )
        14        Li     tau(  14) = (   0.5000000   0.6422925   3.0581945  )
        15        Li     tau(  15) = (   0.5000000   0.0347285   3.9385978  )
        16        Li     tau(  16) = (   0.7499982   0.5524521   3.4068461  )
        17        Li     tau(  17) = (   0.7500013   1.0074069   3.1163450  )
        18        Li     tau(  18) = (   0.7500007   0.3004606   2.9340906  )
        19        Li     tau(  19) = (   0.7499992   0.8110204   3.8143270  )
        20        Li     tau(  20) = (   0.7500009   0.1142137   3.5981746  )

   Crystallographic axes

     site n.     atom                  positions (cryst. coord.)
         1        Li     tau(   1) = ( -0.0000000  0.3988680  0.5465665  )
         2        Li     tau(   2) = ( -0.0000000  0.8059843  0.5042880  )
         3        Li     tau(   3) = ( -0.0000000  0.1981254  0.4763757  )
         4        Li     tau(   4) = ( -0.0000000  0.5744844  0.4449910  )
         5        Li     tau(   5) = ( -0.0000000  0.0310618  0.5730953  )
         6        Li     tau(   6) = (  0.2500017  0.4941282  0.4957222  )
         7        Li     tau(   7) = (  0.2499986  0.9010522  0.4534520  )
         8        Li     tau(   8) = (  0.2499992  0.2687401  0.4269326  )
         9        Li     tau(   9) = (  0.2500008  0.7253987  0.5550137  )
        10        Li     tau(  10) = (  0.2499991  0.1021559  0.5235619  )
        11        Li     tau(  11) = (  0.5000000  0.3988677  0.5465665  )
        12        Li     tau(  12) = (  0.5000000  0.8059839  0.5042877  )
        13        Li     tau(  13) = (  0.5000000  0.1981275  0.4763752  )
        14        Li     tau(  14) = (  0.5000000  0.5744839  0.4449907  )
        15        Li     tau(  15) = (  0.5000000  0.0310621  0.5730961  )
        16        Li     tau(  16) = (  0.7499982  0.4941282  0.4957222  )
        17        Li     tau(  17) = (  0.7500013  0.9010522  0.4534520  )
        18        Li     tau(  18) = (  0.7500007  0.2687401  0.4269326  )
        19        Li     tau(  19) = (  0.7499992  0.7253987  0.5550137  )
        20        Li     tau(  20) = (  0.7500009  0.1021559  0.5235619  )

     number of k points=    30  Marzari-Vanderbilt smearing, width (Ry)=  0.0100
                       cart. coord. in units 2pi/alat
        k(    1) = (   0.0000000   0.0000000   0.0000000), wk =   0.0222222
        k(    2) = (   0.0000000   0.0993808   0.0000000), wk =   0.0444444
        k(    3) = (   0.0000000   0.1987616   0.0000000), wk =   0.0444444
        k(    4) = (   0.0000000   0.2981424   0.0000000), wk =   0.0444444
        k(    5) = (   0.0000000   0.3975232   0.0000000), wk =   0.0444444
        k(    6) = (   0.1000000   0.0000000   0.0000000), wk =   0.0444444
        k(    7) = (   0.1000000   0.0993808   0.0000000), wk =   0.0888889
        k(    8) = (   0.1000000   0.1987616   0.0000000), wk =   0.0888889
        k(    9) = (   0.1000000   0.2981424   0.0000000), wk =   0.0888889
        k(   10) = (   0.1000000   0.3975232   0.0000000), wk =   0.0888889
        k(   11) = (   0.2000000   0.0000000   0.0000000), wk =   0.0444444
        k(   12) = (   0.2000000   0.0993808   0.0000000), wk =   0.0888889
[...]
    -3.0537  -3.0537  -2.8235  -2.8235  -2.2201  -2.2201  -1.9735  -1.9735
    -1.3686  -1.3686  -1.1424  -1.1424  -0.3224  -0.3223  -0.2589  -0.2588
     0.1413   0.1413   0.2068   0.2068   0.5531

     occupation numbers
     1.0000   1.0000   1.0000   1.0000   1.0000   1.0000   1.0000   1.0000
     1.0000   1.0000   1.0000   1.0000   1.0000   1.0000   1.0000   1.0000
     1.0000   1.0000   1.0000   1.0000   1.0000   1.0000   1.0000   1.0000
     1.0000   1.0000   1.0000   1.0000   1.0000   1.0000   1.0000   1.0000
     0.2421   0.2421   0.0005   0.0005   0.0000   0.0000   0.0000   0.0000
     0.0000   0.0000   0.0000   0.0000   0.0000

     the Fermi energy is    -1.4040 ev

!    total energy              =    -300.94887412 Ry
     total all-electron energy =      -300.949037 Ry
     estimated scf accuracy    <          8.0E-13 Ry

!    total charge of GC-SCF    =      -5.64505385 e
     smearing contrib. (-TS)   =      -0.00026925 Ry
     internal energy E=F+TS    =    -300.94860487 Ry

     The total energy is F=E-TS. E is the sum of the following terms:
     one-electron contribution =   -3001.04258544 Ry
     hartree contribution      =    1471.38776130 Ry
     xc contribution           =     -73.20834607 Ry
     ewald contribution        =    1154.24078610 Ry
     one-center paw contrib.   =       1.76531286 Ry
      -> PAW hartree energy AE =       7.41473527 Ry
      -> PAW hartree energy PS =      -7.19175826 Ry
      -> PAW xc energy AE      =      -3.48200392 Ry
      -> PAW xc energy PS      =       3.34736296 Ry
      -> total E_H with PAW    =    1471.61073830 Ry
      -> total E_XC with PAW   =     -73.34298704 Ry
     pot.stat. contrib. (-muN) =       0.58252494 Ry
     electrostatic embedding   =      -6.51832177 Ry
     cavitation energy         =       0.02135997 Ry
     electrolyte free energy   =      -0.13797131 Ry
     correction to one-el term =     151.96087457 Ry

     WARNING: you are using the parabolic pbc correction;
              the potential shift above must be added to
              band and Fermi energies.

     convergence has been achieved in  15 iterations
     The dielectric solvent contribution to forces
     atom    1 type  1   force =     0.00000000   -0.00729171   -0.12298660
     atom    2 type  1   force =     0.00000000    0.00304046   -0.00162306
     atom    3 type  1   force =     0.00000000    0.00927694    0.04419264
     atom    4 type  1   force =     0.00000000   -0.03453688    0.11080596
     atom    5 type  1   force =    -0.00000000   -0.01660309   -0.05692656
     atom    6 type  1   force =     0.00000001   -0.00304102    0.00188991
     atom    7 type  1   force =     0.00000127    0.00724640    0.12325777
     atom    8 type  1   force =     0.00000135    0.01662249    0.05733828
     atom    9 type  1   force =    -0.00000077    0.03457829   -0.11055152
     atom   10 type  1   force =     0.00000024   -0.00926201   -0.04386428
     atom   11 type  1   force =    -0.00000000   -0.00729230   -0.12298624
     atom   12 type  1   force =    -0.00000000    0.00304085   -0.00162242
     atom   13 type  1   force =    -0.00000000    0.00927628    0.04419140
     atom   14 type  1   force =    -0.00000000   -0.03453717    0.11080538
     atom   15 type  1   force =    -0.00000000   -0.01660338   -0.05692504
     atom   16 type  1   force =    -0.00000001   -0.00304102    0.00188991
     atom   17 type  1   force =    -0.00000127    0.00724640    0.12325777
     atom   18 type  1   force =    -0.00000135    0.01662249    0.05733829
     atom   19 type  1   force =     0.00000077    0.03457829   -0.11055152
     atom   20 type  1   force =    -0.00000024   -0.00926201   -0.04386428

     Forces acting on atoms (cartesian axes, Ry/au):

     atom    1 type  1   force =     0.00000000    0.00001148   -0.00007299
     atom    2 type  1   force =     0.00000000   -0.00006281   -0.00011950
     atom    3 type  1   force =     0.00000000   -0.00029969    0.00016043
     atom    4 type  1   force =     0.00000000    0.00012809    0.00013789
     atom    5 type  1   force =     0.00000000   -0.00000604   -0.00016688
     atom    6 type  1   force =     0.00000041    0.00007752    0.00012164
     atom    7 type  1   force =    -0.00000105    0.00000932    0.00008744
     atom    8 type  1   force =    -0.00000042    0.00001401    0.00008096
     atom    9 type  1   force =     0.00000135   -0.00012351   -0.00014086
     atom   10 type  1   force =    -0.00000190    0.00025223   -0.00008967
     atom   11 type  1   force =     0.00000000    0.00001262   -0.00007153
     atom   12 type  1   force =     0.00000000   -0.00006723   -0.00011769
     atom   13 type  1   force =     0.00000000   -0.00029774    0.00015945
     atom   14 type  1   force =     0.00000000    0.00012901    0.00013872
     atom   15 type  1   force =     0.00000000   -0.00000683   -0.00016691
     atom   16 type  1   force =    -0.00000041    0.00007752    0.00012164
     atom   17 type  1   force =     0.00000105    0.00000932    0.00008744
     atom   18 type  1   force =     0.00000042    0.00001401    0.00008096
     atom   19 type  1   force =    -0.00000135   -0.00012351   -0.00014086
     atom   20 type  1   force =     0.00000190    0.00025223   -0.00008967
     The non-local contrib.  to forces
     atom    1 type  1   force =     0.00000000    0.00007405    0.03087765
     atom    2 type  1   force =     0.00000000   -0.00100390   -0.00033630
     atom    3 type  1   force =     0.00000000   -0.00168613    0.00431171
     atom    4 type  1   force =     0.00000000    0.01210192   -0.02583254
     atom    5 type  1   force =     0.00000000    0.00864897    0.03281349
     atom    6 type  1   force =     0.00000047    0.00105664    0.00038102
     atom    7 type  1   force =    -0.00000235   -0.00008858   -0.03087078
     atom    8 type  1   force =    -0.00000137   -0.00865112   -0.03289355
     atom    9 type  1   force =     0.00000255   -0.01205909    0.02582112
     atom   10 type  1   force =    -0.00000297    0.00161001   -0.00426825
     atom   11 type  1   force =     0.00000000    0.00007730    0.03087837
     atom   12 type  1   force =     0.00000000   -0.00100754   -0.00033333
     atom   13 type  1   force =     0.00000000   -0.00168337    0.00431007
     atom   14 type  1   force =     0.00000000    0.01210171   -0.02583131
     atom   15 type  1   force =     0.00000000    0.00864795    0.03281408
     atom   16 type  1   force =    -0.00000047    0.00105664    0.00038102
     atom   17 type  1   force =     0.00000235   -0.00008858   -0.03087078
     atom   18 type  1   force =     0.00000137   -0.00865112   -0.03289355
     atom   19 type  1   force =    -0.00000255   -0.01205909    0.02582112
     atom   20 type  1   force =     0.00000297    0.00161001   -0.00426825
     The ionic contribution  to forces
     atom    1 type  1   force =    -0.00000002    0.11231806    5.72436716
     atom    2 type  1   force =    -0.00000002   -0.07239600    0.44509154
     atom    3 type  1   force =    -0.00000003   -0.09398830   -2.80659973
     atom    4 type  1   force =    -0.00000002    0.32904651   -6.50255015
     atom    5 type  1   force =    -0.00000001    0.16439045    8.08264204
     atom    6 type  1   force =     0.00000285    0.07343708   -0.44388231
     atom    7 type  1   force =    -0.00004467   -0.11225901   -5.72487649
     atom    8 type  1   force =    -0.00002600   -0.16451030   -8.08206405
     atom    9 type  1   force =     0.00003699   -0.32822770    6.50223242
     atom   10 type  1   force =    -0.00005183    0.09219230    2.80565047
     atom   11 type  1   force =     0.00000001    0.11236790    5.72431667
     atom   12 type  1   force =     0.00000001   -0.07248030    0.44508132
     atom   13 type  1   force =     0.00000002   -0.09394206   -2.80658251
     atom   14 type  1   force =     0.00000001    0.32905187   -6.50255845
     atom   15 type  1   force =     0.00000001    0.16436713    8.08267204
     atom   16 type  1   force =    -0.00000284    0.07343707   -0.44388233
     atom   17 type  1   force =     0.00004467   -0.11225901   -5.72487646
     atom   18 type  1   force =     0.00002600   -0.16451029   -8.08206401
     atom   19 type  1   force =    -0.00003699   -0.32822770    6.50223240
     atom   20 type  1   force =     0.00005183    0.09219230    2.80565042
     The local contribution  to forces
     atom    1 type  1   force =     0.00000349   -0.10509047   -5.63233122
     atom    2 type  1   force =     0.00000349    0.07029637   -0.44325212
     atom    3 type  1   force =     0.00000290    0.08609827    2.75825605
     atom    4 type  1   force =     0.00000407   -0.30647985    6.41771062
     atom    5 type  1   force =     0.00000408   -0.15644825   -8.05869746
     atom    6 type  1   force =     0.00000178   -0.07137533    0.44173252
     atom    7 type  1   force =     0.00004911    0.10511179    5.63257666
     atom    8 type  1   force =     0.00003031    0.15655827    8.05770230
     atom    9 type  1   force =    -0.00003330    0.30558134   -6.41763966
     atom   10 type  1   force =     0.00005706   -0.08428865   -2.75760902
     atom   11 type  1   force =     0.00000442   -0.10514182   -5.63228035
     atom   12 type  1   force =     0.00000441    0.07037952   -0.44324371
     atom   13 type  1   force =     0.00000557    0.08605187    2.75824072
     atom   14 type  1   force =     0.00000500   -0.30648381    6.41771909
     atom   15 type  1   force =     0.00000384   -0.15642442   -8.05872959
     atom   16 type  1   force =     0.00000762   -0.07137475    0.44173312
     atom   17 type  1   force =    -0.00004028    0.10511179    5.63257605
     atom   18 type  1   force =    -0.00002090    0.15655886    8.05770110
     atom   19 type  1   force =     0.00004155    0.30558134   -6.41763906
     atom   20 type  1   force =    -0.00004825   -0.08428865   -2.75760780
     The core correction contribution to forces
     atom    1 type  1   force =     0.00000000    0.00000000    0.00000000
     atom    2 type  1   force =     0.00000000    0.00000000    0.00000000
     atom    3 type  1   force =     0.00000000    0.00000000    0.00000000
     atom    4 type  1   force =     0.00000000    0.00000000    0.00000000
     atom    5 type  1   force =     0.00000000    0.00000000    0.00000000
     atom    6 type  1   force =     0.00000000    0.00000000    0.00000000
     atom    7 type  1   force =     0.00000000    0.00000000    0.00000000
     atom    8 type  1   force =     0.00000000    0.00000000    0.00000000
     atom    9 type  1   force =     0.00000000    0.00000000    0.00000000
     atom   10 type  1   force =     0.00000000    0.00000000    0.00000000
     atom   11 type  1   force =     0.00000000    0.00000000    0.00000000
     atom   12 type  1   force =     0.00000000    0.00000000    0.00000000
     atom   13 type  1   force =     0.00000000    0.00000000    0.00000000
     atom   14 type  1   force =     0.00000000    0.00000000    0.00000000
     atom   15 type  1   force =     0.00000000    0.00000000    0.00000000
     atom   16 type  1   force =     0.00000000    0.00000000    0.00000000
     atom   17 type  1   force =     0.00000000    0.00000000    0.00000000
     atom   18 type  1   force =     0.00000000    0.00000000    0.00000000
     atom   19 type  1   force =     0.00000000    0.00000000    0.00000000
     atom   20 type  1   force =     0.00000000    0.00000000    0.00000000
     The Hubbard contrib.    to forces
     atom    1 type  1   force =     0.00000000    0.00000000    0.00000000
     atom    2 type  1   force =     0.00000000    0.00000000    0.00000000
     atom    3 type  1   force =     0.00000000    0.00000000    0.00000000
     atom    4 type  1   force =     0.00000000    0.00000000    0.00000000
     atom    5 type  1   force =     0.00000000    0.00000000    0.00000000
     atom    6 type  1   force =     0.00000000    0.00000000    0.00000000
     atom    7 type  1   force =     0.00000000    0.00000000    0.00000000
     atom    8 type  1   force =     0.00000000    0.00000000    0.00000000
     atom    9 type  1   force =     0.00000000    0.00000000    0.00000000
     atom   10 type  1   force =     0.00000000    0.00000000    0.00000000
     atom   11 type  1   force =     0.00000000    0.00000000    0.00000000
     atom   12 type  1   force =     0.00000000    0.00000000    0.00000000
     atom   13 type  1   force =     0.00000000    0.00000000    0.00000000
     atom   14 type  1   force =     0.00000000    0.00000000    0.00000000
     atom   15 type  1   force =     0.00000000    0.00000000    0.00000000
     atom   16 type  1   force =     0.00000000    0.00000000    0.00000000
     atom   17 type  1   force =     0.00000000    0.00000000    0.00000000
     atom   18 type  1   force =     0.00000000    0.00000000    0.00000000
     atom   19 type  1   force =     0.00000000    0.00000000    0.00000000
     atom   20 type  1   force =     0.00000000    0.00000000    0.00000000
     The SCF correction term to forces
     atom    1 type  1   force =    -0.00000000    0.00000147   -0.00000026
     atom    2 type  1   force =     0.00000000    0.00000017    0.00000018
     atom    3 type  1   force =     0.00000000   -0.00000055   -0.00000050
     atom    4 type  1   force =    -0.00000000   -0.00000369    0.00000373
     atom    5 type  1   force =     0.00000000    0.00000580    0.00000134
     atom    6 type  1   force =     0.00000000   -0.00000022   -0.00000006
     atom    7 type  1   force =     0.00000000   -0.00000136    0.00000030
     atom    8 type  1   force =    -0.00000000   -0.00000571   -0.00000172
     atom    9 type  1   force =     0.00000001    0.00000357   -0.00000378
     atom   10 type  1   force =     0.00000001    0.00000049    0.00000055
     atom   11 type  1   force =     0.00000000    0.00000147   -0.00000025
     atom   12 type  1   force =     0.00000000    0.00000017    0.00000018
     atom   13 type  1   force =    -0.00000000   -0.00000054   -0.00000050
     atom   14 type  1   force =    -0.00000000   -0.00000368    0.00000373
     atom   15 type  1   force =     0.00000000    0.00000582    0.00000132
     atom   16 type  1   force =    -0.00000000   -0.00000022   -0.00000006
     atom   17 type  1   force =    -0.00000000   -0.00000136    0.00000030
     atom   18 type  1   force =     0.00000000   -0.00000571   -0.00000172
     atom   19 type  1   force =    -0.00000001    0.00000357   -0.00000378
     atom   20 type  1   force =    -0.00000001    0.00000049    0.00000055

     Total force =     0.000830     Total SCF correction =     0.000016
     Energy error            =      6.7E-06 Ry
     Gradient error          =      3.0E-04 Ry/Bohr

     bfgs converged in  34 scf cycles and  33 bfgs steps
     (criteria: energy <  1.0E-05 Ry, force <  3.9E-04 Ry/Bohr)

     End of BFGS Geometry Optimization

     Final energy             =    -300.9488741235 Ry

     File ./Li/Lithium.bfgs deleted, as requested
Begin final coordinates

ATOMIC_POSITIONS (angstrom)
Li              -0.0000000600        2.9854160249       25.7763914063
Li              -0.0000000600        6.1861969770       23.8178913155
Li              -0.0000000500        1.5785538341       22.5066632004
Li              -0.0000000700        4.4844633277       21.0255905208
Li              -0.0000000700        0.1555443465       27.0668270550
Li               1.7175780191        3.7988608396       23.3979155085
Li               1.7176040235        6.9997747829       21.4392247129
Li               1.7175913897        2.1492256723       20.1514504458
Li               1.7175556984        5.5012866868       26.1906274451
Li               1.7176010618        0.7262578678       24.7081898984
Li               3.4351561700        2.9854117476       25.7763579294
Li               3.4351561700        6.1862527893       23.8178706990
Li               3.4351561500        1.5785376985       22.5066770317
Li               3.4351561600        4.4844382991       21.0255794456
Li               3.4351561800        0.1555529692       27.0668372376
Li               5.1527343109        3.7988608296       23.3979154985
Li               5.1527083165        6.9997747829       21.4392247229
Li               5.1527209403        2.1492256623       20.1514504657
Li               5.1527566516        5.5012866868       26.1906274351
Li               5.1527112782        0.7262578678       24.7081898784
End final coordinates

     Writing all to output data dir ./Li/Lithium.save/ :
     XML data file

     General routines

     Parallel routines

     PAW routines

     Environ routines

   This run was terminated on:   5:36: 9   5Jan2025

   JOB DONE.