     Program PWSCF v.7.4 starts on  3Jan2025 at 16: 0:45

     Reading input from espresso.pwi
Warning: card &CELL ignored
Warning: card    PRESS_CONV_THR   = 0.1 ignored
Warning: card    CELL_DOFREE      = 'ALL' ignored
Warning: card / ignored
Warning: card &FCP ignored
Warning: card / ignored
Warning: card &RISM ignored
Warning: card / ignored

     Current dimensions of program PWSCF are:
     Max number of different atomic species (ntypx) = 10
     Max number of k-points (npk) =  40000
     Max angular momentum in pseudopotentials (lmaxx) =  4

     IMPORTANT: XC functional enforced from input :
     Exchange-correlation= PBE
                           (   1   4   3   4   0   0   0)
     Any further DFT definition will be discarded
     Please, verify this is what you really want

     Reading input from environ.in:
     * using ionic solvent mode
     * setting boundary derivatives method to SSCS default
     * setting electrolyte-boundary derivatives method to SSCS default

Environ Warning (1001): card EOF ignored

     K-points division:     npool     =       2
     R & G space division:  proc/nbgrp/npool/nimage =     192
     Subspace diagonalization in iterative solution of the eigenvalue problem:
     a serial algorithm will be used

     Using Slab Decomposition

     bravais-lattice index     =           12
     lattice parameter (alat)  =      18.3607  a.u.
     unit-cell volume          =   23801.8584 (a.u.)^3
     number of atoms/cell      =           36
     number of atomic types    =            1
     number of electrons       =       108.00
     number of Kohn-Sham states=           81
     kinetic-energy cutoff     =      80.0000  Ry
     charge density cutoff     =     800.0000  Ry
     scf convergence threshold =      1.0E-06
     mixing beta               =       0.2000
     number of iterations used =            8  local-TF  mixing
     energy convergence thresh.=      1.0E-05
     force convergence thresh. =      3.9E-04
     Exchange-correlation= PBE
                           (   1   4   3   4   0   0   0)
     nstep                     =          999

                                  Environ Setup Summary

          O. Andreussi, I. Dabo and N. Marzari, J. Chem. Phys. 136, 064102 (2012)
          F. Nattino, M. Truscott, N. Marzari, and O. Andreussi, J. Chem. Phys. 150, 041722 (2019)

     in publications or presentations arising from this work.

     Parameters

     compensation onset threshold      =               0.1000E+00
     static permittivity               =                    89.90
     surface tension in input (dyn/cm) =                    37.30
     surface tension in internal units =               0.4792E-04

     Solvent Boundary

     solvent mode                      =                    ionic
     derivatives method                =                   lowmem
     electrolyte derivatives method    =                   lowmem
     numerical core for derivatives    =                      fft
     switching function adopted        =                     SCCS
     density limit for vacuum region   =               0.5000E-02
     density limit for bulk solvent    =               0.1000E-03
     soft-sphere radius mode           =                    bondi
     soft-sphere softness              =                     0.50
     alpha                             =                     1.32

     Electrostatic Setup

     electrostatic problem to solve    =                    modpb
     numerical solver adopted          =                   newton
     type of auxiliary density adopted =                     none
     numerical core for poisson        =                      fft
     adopting a nested solver scheme
     inner solver                      =                       cg
     inner core                        =                      fft
     type of pbc corrections           =                parabolic
     numerical core for corrections    =                      1da

     >>>>> Grand-Canonical SCF is activated <<<<<
     Initial Total Charge  =     0.000000 e
     Target Fermi Energy   =    -1.904000 eV
     Thr. of Fermi Energy  =     0.001000 eV
     Wave-shift of Kerker  =     0.400000 bohr^-1
     Wave-shift of Hartree =     1.500000 bohr^-1
     Mixing Rate of Fermi  =     0.050000

     celldm(1)=  18.360747  celldm(2)=   0.790569  celldm(3)=   5.127180
     celldm(4)=   0.316228  celldm(5)=   0.000000  celldm(6)=   0.000000

     crystal axes: (cart. coord. in units of alat)
               a(1) = (   1.000000   0.000000   0.000000 )
               a(2) = (   0.250000   0.750000   0.000000 )
               a(3) = (   0.000000   0.000000   5.127180 )

     reciprocal axes: (cart. coord. in units 2 pi/alat)
               b(1) = (  1.000000 -0.333333  0.000000 )
               b(2) = (  0.000000  1.333333  0.000000 )
               b(3) = (  0.000000  0.000000  0.195039 )

     PseudoPot. # 1 for Li read from file:
     /work/e89/e89/ba3g18/Repos/Pseudopotentials/Pslibrary/Li.pbe-sl-kjpaw_psl.1.0.0.UPF
     MD5 check sum: 3f4d2cafebb47c6c3aa8ed472e6f074d
     Pseudo is Projector augmented-wave, Zval =  3.0
     Generated using 'atomic' code by A. Dal Corso  v.7.4
     Shape of augmentation charge: PSQ
     Using radial grid of 1017 points,  4 beta functions with:
                l(1) =   0
                l(2) =   0
                l(3) =   1
                l(4) =   1
     Q(r) pseudized with 0 coefficients

     atomic species   valence    mass     pseudopotential
     Li                3.00     6.94000     Li( 1.00)

     No symmetry found

                                    s                        frac. trans.

      isym =  1     identity

 cryst.   s( 1) = (     1          0          0      )
                  (     0          1          0      )
                  (     0          0          1      )

 cart.    s( 1) = (  1.0000000  0.0000000  0.0000000 )
                  (  0.0000000  1.0000000  0.0000000 )
                  (  0.0000000  0.0000000  1.0000000 )

     point group C_1 (1)
     there are  1 classes
     the character table:

       E
A      1.00

     the symmetry operations in each class and the name of the first element:

     E        1
          identity

   Cartesian axes

     site n.     atom                  positions (alat units)
         1        Li     tau(   1) = (   0.0000648  -0.0292383   3.0578552  )
         2        Li     tau(   2) = (   0.2499449   0.4124655   2.1319758  )
         3        Li     tau(   3) = (   0.2499498   0.0920953   2.2661148  )
         4        Li     tau(   4) = (   0.4999693   0.4993349   2.3468251  )
         5        Li     tau(   5) = (   0.4999653   0.1635245   2.4818582  )
         6        Li     tau(   6) = (   0.2499920   0.5915666   2.5827672  )
         7        Li     tau(   7) = (   0.2500375   0.2441563   2.7043267  )
         8        Li     tau(   8) = (   0.5000513   0.6618324   2.8414618  )
         9        Li     tau(   9) = (   0.5000700   0.3422796   2.9435347  )
        10        Li     tau(  10) = (   0.2499487   0.6714878   2.2857237  )
        11        Li     tau(  11) = (   0.2499620   0.3391898   2.4228649  )
        12        Li     tau(  12) = (   0.5000073   0.7417758   2.5444416  )
        13        Li     tau(  13) = (   0.5000348   0.4197973   2.6453100  )
        14        Li     tau(  14) = (   0.5000311   0.0840086   2.7803550  )
        15        Li     tau(  15) = (   0.2500499   0.4912299   2.8610692  )
        16        Li     tau(  16) = (   0.2500583   0.1708713   2.9951991  )
        17        Li     tau(  17) = (   0.4999408   0.6125600   2.0692985  )
        18        Li     tau(  18) = (   0.4999314   0.2410724   2.1836170  )
        19        Li     tau(  19) = (   0.5000572  -0.0292464   3.0578600  )
        20        Li     tau(  20) = (   0.7499438   0.4124635   2.1319808  )
        21        Li     tau(  21) = (   0.7499496   0.0920944   2.2661175  )
        22        Li     tau(  22) = (   0.9999676   0.4993372   2.3468281  )
        23        Li     tau(  23) = (   0.9999665   0.1635248   2.4818583  )
        24        Li     tau(  24) = (   0.7499923   0.5915680   2.5827656  )
        25        Li     tau(  25) = (   0.7500376   0.2441549   2.7043322  )
        26        Li     tau(  26) = (   1.0000522   0.6618320   2.8414645  )
        27        Li     tau(  27) = (   1.0000668   0.3422731   2.9435329  )
        28        Li     tau(  28) = (   0.7499479   0.6714886   2.2857233  )
        29        Li     tau(  29) = (   0.7499627   0.3391888   2.4228709  )
        30        Li     tau(  30) = (   1.0000087   0.7417753   2.5444435  )
        31        Li     tau(  31) = (   1.0000332   0.4197977   2.6453106  )
        32        Li     tau(  32) = (   1.0000318   0.0840073   2.7803514  )
        33        Li     tau(  33) = (   0.7500508   0.4912305   2.8610660  )
        34        Li     tau(  34) = (   0.7500531   0.1708672   2.9952049  )
        35        Li     tau(  35) = (   0.9999375   0.6125581   2.0693028  )
        36        Li     tau(  36) = (   0.9999319   0.2410760   2.1836203  )

   Crystallographic axes

     site n.     atom                  positions (cryst. coord.)
         1        Li     tau(   1) = (  0.0098109 -0.0389844  0.5964010  )
         2        Li     tau(   2) = (  0.1124564  0.5499540  0.4158184  )
         3        Li     tau(   3) = (  0.2192514  0.1227937  0.4419807  )
         4        Li     tau(   4) = (  0.3335243  0.6657799  0.4577224  )
         5        Li     tau(   5) = (  0.4454572  0.2180327  0.4840591  )
         6        Li     tau(   6) = (  0.0528031  0.7887555  0.5037403  )
         7        Li     tau(   7) = (  0.1686521  0.3255417  0.5274491  )
         8        Li     tau(   8) = (  0.2794404  0.8824432  0.5541958  )
         9        Li     tau(   9) = (  0.3859768  0.4563728  0.5741040  )
        10        Li     tau(  10) = (  0.0261194  0.8953170  0.4458052  )
        11        Li     tau(  11) = (  0.1368988  0.4522530  0.4725531  )
        12        Li     tau(  12) = (  0.2527487  0.9890344  0.4962653  )
        13        Li     tau(  13) = (  0.3601024  0.5597297  0.5159386  )
        14        Li     tau(  14) = (  0.4720282  0.1120114  0.5422776  )
        15        Li     tau(  15) = (  0.0863066  0.6549732  0.5580201  )
        16        Li     tau(  16) = (  0.1931012  0.2278285  0.5841806  )
        17        Li     tau(  17) = (  0.2957542  0.8167466  0.4035939  )
        18        Li     tau(  18) = (  0.4195740  0.3214298  0.4258904  )
        19        Li     tau(  19) = (  0.5098060 -0.0389952  0.5964019  )
        20        Li     tau(  20) = (  0.6124559  0.5499514  0.4158194  )
        21        Li     tau(  21) = (  0.7192515  0.1227925  0.4419813  )
        22        Li     tau(  22) = (  0.8335219  0.6657830  0.4577230  )
        23        Li     tau(  23) = (  0.9454583  0.2180330  0.4840591  )
        24        Li     tau(  24) = (  0.5528029  0.7887573  0.5037400  )
        25        Li     tau(  25) = (  0.6686526  0.3255399  0.5274502  )
        26        Li     tau(  26) = (  0.7794415  0.8824427  0.5541964  )
[...]
     atom    6 type  1   force =     0.00004626    0.04661535    0.73726221
     atom    7 type  1   force =     0.00010051   -0.00899266    3.37062240
     atom    8 type  1   force =     0.00000880   -0.13919720    6.61624584
     atom    9 type  1   force =    -0.00018270    0.31623351    9.53666571
     atom   10 type  1   force =    -0.00000720    0.13919856   -6.61627468
     atom   11 type  1   force =    -0.00009778    0.00899198   -3.37068980
     atom   12 type  1   force =    -0.00003944   -0.04661853   -0.73725878
     atom   13 type  1   force =    -0.00009401    0.07322327    2.35721501
     atom   14 type  1   force =    -0.00003139   -0.07884850    4.77220014
     atom   15 type  1   force =     0.00013397    0.07529912    7.75186944
     atom   16 type  1   force =     0.00013460    0.06902878   10.06399971
     atom   17 type  1   force =     0.00007849    0.29844647  -10.84453844
     atom   18 type  1   force =     0.00018282   -0.31626217   -9.53664964
     atom   19 type  1   force =    -0.00007730   -0.29842676   10.84456974
     atom   20 type  1   force =    -0.00013432   -0.06903287  -10.06403447
     atom   21 type  1   force =    -0.00013552   -0.07529886   -7.75182313
     atom   22 type  1   force =     0.00003600    0.07884819   -4.77214206
     atom   23 type  1   force =     0.00008484   -0.07321435   -2.35725689
     atom   24 type  1   force =     0.00004009    0.04662635    0.73725963
     atom   25 type  1   force =     0.00009810   -0.00900422    3.37065875
     atom   26 type  1   force =     0.00000607   -0.13919464    6.61625903
     atom   27 type  1   force =    -0.00017411    0.31623666    9.53666349
     atom   28 type  1   force =    -0.00000803    0.13920358   -6.61627828
     atom   29 type  1   force =    -0.00010022    0.00898261   -3.37064406
     atom   30 type  1   force =    -0.00004679   -0.04660834   -0.73724182
     atom   31 type  1   force =    -0.00008291    0.07322060    2.35722235
     atom   32 type  1   force =    -0.00003536   -0.07884562    4.77217228
     atom   33 type  1   force =     0.00013592    0.07530738    7.75184924
     atom   34 type  1   force =     0.00013800    0.06902180   10.06402838
     atom   35 type  1   force =     0.00007724    0.29844668  -10.84452829
     atom   36 type  1   force =     0.00017323   -0.31626103   -9.53665305
     The local contribution  to forces
     atom    1 type  1   force =     0.00009610    0.29675994  -10.85071716
     atom    2 type  1   force =     0.00016634    0.04817346    9.99657267
     atom    3 type  1   force =     0.00016370    0.08347149    7.65306056
     atom    4 type  1   force =    -0.00004911   -0.07351937    4.71126660
     atom    5 type  1   force =    -0.00011573    0.07101869    2.32611937
     atom    6 type  1   force =    -0.00003735   -0.05146825   -0.72624087
     atom    7 type  1   force =    -0.00007828    0.01382352   -3.32803616
     atom    8 type  1   force =    -0.00001080    0.12624751   -6.52891226
     atom    9 type  1   force =     0.00022669   -0.29538059   -9.45071282
     atom   10 type  1   force =     0.00000882   -0.12624839    6.52892927
     atom   11 type  1   force =     0.00007528   -0.01382345    3.32809190
     atom   12 type  1   force =     0.00003040    0.05147149    0.72622538
     atom   13 type  1   force =     0.00011842   -0.07102320   -2.32610185
     atom   14 type  1   force =     0.00004990    0.07351795   -4.71132434
     atom   15 type  1   force =    -0.00016426   -0.08346549   -7.65309176
     atom   16 type  1   force =    -0.00016376   -0.04817494   -9.99651966
     atom   17 type  1   force =    -0.00009607   -0.29678132   10.85068368
     atom   18 type  1   force =    -0.00022683    0.29540747    9.45068528
     atom   19 type  1   force =     0.00009509    0.29676029  -10.85072940
     atom   20 type  1   force =     0.00016324    0.04817978    9.99654481
     atom   21 type  1   force =     0.00016578    0.08346426    7.65303312
     atom   22 type  1   force =    -0.00005451   -0.07351678    4.71125469
     atom   23 type  1   force =    -0.00010919    0.07101591    2.32613186
     atom   24 type  1   force =    -0.00003097   -0.05147957   -0.72623839
     atom   25 type  1   force =    -0.00007560    0.01383525   -3.32807194
     atom   26 type  1   force =    -0.00000774    0.12624450   -6.52892527
     atom   27 type  1   force =     0.00021847   -0.29538336   -9.45071048
     atom   28 type  1   force =     0.00001008   -0.12625369    6.52893282
     atom   29 type  1   force =     0.00007801   -0.01381396    3.32804668
     atom   30 type  1   force =     0.00003779    0.05146125    0.72620860
     atom   31 type  1   force =     0.00010710   -0.07102029   -2.32610892
     atom   32 type  1   force =     0.00005374    0.07351490   -4.71129692
     atom   33 type  1   force =    -0.00016591   -0.08347383   -7.65307180
     atom   34 type  1   force =    -0.00016612   -0.04816818   -9.99654956
     atom   35 type  1   force =    -0.00009513   -0.29678149   10.85067188
     atom   36 type  1   force =    -0.00021760    0.29540622    9.45068877
     The core correction contribution to forces
     atom    1 type  1   force =     0.00000000    0.00000000    0.00000000
     atom    2 type  1   force =     0.00000000    0.00000000    0.00000000
     atom    3 type  1   force =     0.00000000    0.00000000    0.00000000
     atom    4 type  1   force =     0.00000000    0.00000000    0.00000000
     atom    5 type  1   force =     0.00000000    0.00000000    0.00000000
     atom    6 type  1   force =     0.00000000    0.00000000    0.00000000
     atom    7 type  1   force =     0.00000000    0.00000000    0.00000000
     atom    8 type  1   force =     0.00000000    0.00000000    0.00000000
     atom    9 type  1   force =     0.00000000    0.00000000    0.00000000
     atom   10 type  1   force =     0.00000000    0.00000000    0.00000000
     atom   11 type  1   force =     0.00000000    0.00000000    0.00000000
     atom   12 type  1   force =     0.00000000    0.00000000    0.00000000
     atom   13 type  1   force =     0.00000000    0.00000000    0.00000000
     atom   14 type  1   force =     0.00000000    0.00000000    0.00000000
     atom   15 type  1   force =     0.00000000    0.00000000    0.00000000
     atom   16 type  1   force =     0.00000000    0.00000000    0.00000000
     atom   17 type  1   force =     0.00000000    0.00000000    0.00000000
     atom   18 type  1   force =     0.00000000    0.00000000    0.00000000
     atom   19 type  1   force =     0.00000000    0.00000000    0.00000000
     atom   20 type  1   force =     0.00000000    0.00000000    0.00000000
     atom   21 type  1   force =     0.00000000    0.00000000    0.00000000
     atom   22 type  1   force =     0.00000000    0.00000000    0.00000000
     atom   23 type  1   force =     0.00000000    0.00000000    0.00000000
     atom   24 type  1   force =     0.00000000    0.00000000    0.00000000
     atom   25 type  1   force =     0.00000000    0.00000000    0.00000000
     atom   26 type  1   force =     0.00000000    0.00000000    0.00000000
     atom   27 type  1   force =     0.00000000    0.00000000    0.00000000
     atom   28 type  1   force =     0.00000000    0.00000000    0.00000000
     atom   29 type  1   force =     0.00000000    0.00000000    0.00000000
     atom   30 type  1   force =     0.00000000    0.00000000    0.00000000
     atom   31 type  1   force =     0.00000000    0.00000000    0.00000000
     atom   32 type  1   force =     0.00000000    0.00000000    0.00000000
     atom   33 type  1   force =     0.00000000    0.00000000    0.00000000
     atom   34 type  1   force =     0.00000000    0.00000000    0.00000000
     atom   35 type  1   force =     0.00000000    0.00000000    0.00000000
     atom   36 type  1   force =     0.00000000    0.00000000    0.00000000
     The Hubbard contrib.    to forces
     atom    1 type  1   force =     0.00000000    0.00000000    0.00000000
     atom    2 type  1   force =     0.00000000    0.00000000    0.00000000
     atom    3 type  1   force =     0.00000000    0.00000000    0.00000000
     atom    4 type  1   force =     0.00000000    0.00000000    0.00000000
     atom    5 type  1   force =     0.00000000    0.00000000    0.00000000
     atom    6 type  1   force =     0.00000000    0.00000000    0.00000000
     atom    7 type  1   force =     0.00000000    0.00000000    0.00000000
     atom    8 type  1   force =     0.00000000    0.00000000    0.00000000
     atom    9 type  1   force =     0.00000000    0.00000000    0.00000000
     atom   10 type  1   force =     0.00000000    0.00000000    0.00000000
     atom   11 type  1   force =     0.00000000    0.00000000    0.00000000
     atom   12 type  1   force =     0.00000000    0.00000000    0.00000000
     atom   13 type  1   force =     0.00000000    0.00000000    0.00000000
     atom   14 type  1   force =     0.00000000    0.00000000    0.00000000
     atom   15 type  1   force =     0.00000000    0.00000000    0.00000000
     atom   16 type  1   force =     0.00000000    0.00000000    0.00000000
     atom   17 type  1   force =     0.00000000    0.00000000    0.00000000
     atom   18 type  1   force =     0.00000000    0.00000000    0.00000000
     atom   19 type  1   force =     0.00000000    0.00000000    0.00000000
     atom   20 type  1   force =     0.00000000    0.00000000    0.00000000
     atom   21 type  1   force =     0.00000000    0.00000000    0.00000000
     atom   22 type  1   force =     0.00000000    0.00000000    0.00000000
     atom   23 type  1   force =     0.00000000    0.00000000    0.00000000
     atom   24 type  1   force =     0.00000000    0.00000000    0.00000000
     atom   25 type  1   force =     0.00000000    0.00000000    0.00000000
     atom   26 type  1   force =     0.00000000    0.00000000    0.00000000
     atom   27 type  1   force =     0.00000000    0.00000000    0.00000000
     atom   28 type  1   force =     0.00000000    0.00000000    0.00000000
     atom   29 type  1   force =     0.00000000    0.00000000    0.00000000
     atom   30 type  1   force =     0.00000000    0.00000000    0.00000000
     atom   31 type  1   force =     0.00000000    0.00000000    0.00000000
     atom   32 type  1   force =     0.00000000    0.00000000    0.00000000
     atom   33 type  1   force =     0.00000000    0.00000000    0.00000000
     atom   34 type  1   force =     0.00000000    0.00000000    0.00000000
     atom   35 type  1   force =     0.00000000    0.00000000    0.00000000
     atom   36 type  1   force =     0.00000000    0.00000000    0.00000000
     The SCF correction term to forces
     atom    1 type  1   force =     0.00000001   -0.00000045    0.00000615
     atom    2 type  1   force =     0.00000001   -0.00000028    0.00000319
     atom    3 type  1   force =    -0.00000001    0.00000042    0.00000033
     atom    4 type  1   force =    -0.00000001   -0.00000009   -0.00000000
     atom    5 type  1   force =    -0.00000000   -0.00000001    0.00000008
     atom    6 type  1   force =     0.00000001   -0.00000002    0.00000015
     atom    7 type  1   force =     0.00000001   -0.00000004    0.00000011
     atom    8 type  1   force =     0.00000001   -0.00000025    0.00000120
     atom    9 type  1   force =     0.00000002   -0.00000086    0.00000103
     atom   10 type  1   force =     0.00000002    0.00000025   -0.00000112
     atom   11 type  1   force =     0.00000001    0.00000002   -0.00000001
     atom   12 type  1   force =     0.00000000    0.00000003   -0.00000003
     atom   13 type  1   force =    -0.00000000    0.00000002    0.00000006
     atom   14 type  1   force =     0.00000001    0.00000008    0.00000011
     atom   15 type  1   force =     0.00000003   -0.00000042   -0.00000027
     atom   16 type  1   force =     0.00000002    0.00000027   -0.00000317
     atom   17 type  1   force =    -0.00000000    0.00000045   -0.00000612
     atom   18 type  1   force =    -0.00000003    0.00000085   -0.00000101
     atom   19 type  1   force =    -0.00000001   -0.00000044    0.00000612
     atom   20 type  1   force =    -0.00000002   -0.00000027    0.00000319
     atom   21 type  1   force =    -0.00000003    0.00000043    0.00000033
     atom   22 type  1   force =    -0.00000002   -0.00000009    0.00000001
     atom   23 type  1   force =     0.00000001   -0.00000000    0.00000007
     atom   24 type  1   force =    -0.00000001   -0.00000001    0.00000016
     atom   25 type  1   force =    -0.00000001   -0.00000004    0.00000010
     atom   26 type  1   force =    -0.00000002   -0.00000024    0.00000117
     atom   27 type  1   force =     0.00000002   -0.00000085    0.00000104
     atom   28 type  1   force =    -0.00000001    0.00000026   -0.00000111
     atom   29 type  1   force =    -0.00000001    0.00000003   -0.00000000
     atom   30 type  1   force =    -0.00000002    0.00000004   -0.00000003
     atom   31 type  1   force =    -0.00000000    0.00000001    0.00000006
     atom   32 type  1   force =     0.00000002    0.00000008    0.00000009
     atom   33 type  1   force =     0.00000000   -0.00000042   -0.00000028
     atom   34 type  1   force =    -0.00000000    0.00000028   -0.00000316
     atom   35 type  1   force =    -0.00000002    0.00000047   -0.00000612
     atom   36 type  1   force =    -0.00000001    0.00000084   -0.00000102

     Total force =     0.001474     Total SCF correction =     0.000014
     Energy error            =      9.3E-06 Ry
     Gradient error          =      3.6E-04 Ry/Bohr

     bfgs converged in  36 scf cycles and  35 bfgs steps
     (criteria: energy <  1.0E-05 Ry, force <  3.9E-04 Ry/Bohr)

     End of BFGS Geometry Optimization

     Final energy             =    -541.4229390816 Ry

     File ./Li/Lithium.bfgs deleted, as requested
Begin final coordinates

ATOMIC_POSITIONS (angstrom)
Li               0.0001138205       -0.0724229712       29.6422064876
Li               2.4291058885        3.9869968387       20.6692632075
Li               2.4292618958        0.9213315465       21.8176594262
Li               4.8582428114        4.7742993163       22.9301245869
Li               4.8581016747        1.6497604053       23.9532900049
Li               2.4289834065        5.6997251958       25.2090231235
Li               2.4287822566        2.3961777567       26.2927673487
Li               4.8578762035        6.4629111224       27.5707931183
Li               4.8580712628        3.2697919075       28.8254989625
Li               2.4291890697        6.4918658460       22.2453287405
Li               2.4292627521        3.2715499040       23.5233538493
Li               4.8580779611        7.2550521060       24.6071318860
Li               4.8579905309        4.0179243309       25.8628488728
Li               4.8578448269        0.8934192543       26.8860385608
Li               2.4287739906        4.7463935110       27.9984778838
Li               2.4289492128        1.6807281243       29.1468081974
Li               4.8579402095        5.7401400084       20.1739143763
Li               4.8580212192        2.3979691936       20.9906180000
Li               4.8581451159       -0.0724371797       29.6422173827
Li               7.2871470664        3.9869934926       20.6692797377
Li               7.2873123792        0.9213324245       21.8176714185
Li               9.7162821187        4.7743027371       22.9301313947
Li               9.7161498375        1.6497640812       23.9532853999
Li               7.2870284889        5.6997348198       25.2090216828
Li               7.2868272854        2.3961738336       26.2927838826
Li               9.7159247700        6.4629126617       27.5707966780
Li               9.7161064057        3.2697699768       28.8254980991
Li               7.2872327438        6.4918676661       22.2453264571
Li               7.2873051069        3.2715550532       23.5233749256
Li               9.7161327076        7.2550470000       24.6071386284
Li               9.7160250048        4.0179263207       25.8628509098
Li               9.7158968636        0.8934128073       26.8860253602
Li               7.2868295962        4.7463916073       27.9984685116
Li               7.2869763445        1.6807211900       29.1468249424
Li               9.7159795531        5.7401455988       20.1739247110
Li               9.7160689735        2.3979767206       20.9906172024
End final coordinates

     Writing all to output data dir ./Li/Lithium.save/ :
     XML data file

     General routines

     Parallel routines

     PAW routines

     Environ routines

   This run was terminated on:   1:55:30   4Jan2025

   JOB DONE.