     Program PWSCF v.7.4 starts on 26Dec2024 at  6: 7: 2

     Reading input from espresso.pwi
Warning: card &CELL ignored
Warning: card    PRESS_CONV_THR   = 0.1 ignored
Warning: card    CELL_DOFREE      = 'ALL' ignored
Warning: card / ignored
Warning: card &FCP ignored
Warning: card / ignored
Warning: card &RISM ignored
Warning: card / ignored

     Current dimensions of program PWSCF are:
     Max number of different atomic species (ntypx) = 10
     Max number of k-points (npk) =  40000
     Max angular momentum in pseudopotentials (lmaxx) =  4

     IMPORTANT: XC functional enforced from input :
     Exchange-correlation= PBE
                           (   1   4   3   4   0   0   0)
     Any further DFT definition will be discarded
     Please, verify this is what you really want

     Reading input from environ.in:
     * using ionic solvent mode
     * setting boundary derivatives method to SSCS default
     * setting electrolyte-boundary derivatives method to SSCS default

Environ Warning (1001): card EOF ignored

     Found identity + (  0.5000 -0.0000 -0.0000) symmetry
     This is a supercell, fractional translations are disabled

     R & G space division:  proc/nbgrp/npool/nimage =     192
     Subspace diagonalization in iterative solution of the eigenvalue problem:
     a serial algorithm will be used

     Using Slab Decomposition

     bravais-lattice index     =            8
     lattice parameter (alat)  =      12.9830  a.u.
     unit-cell volume          =   16814.9384 (a.u.)^3
     number of atoms/cell      =           20
     number of atomic types    =            1
     number of electrons       =        60.00
     number of Kohn-Sham states=           45
     kinetic-energy cutoff     =      80.0000  Ry
     charge density cutoff     =     800.0000  Ry
     scf convergence threshold =      1.0E-14
     mixing beta               =       0.2000
     number of iterations used =            8  local-TF  mixing
     Exchange-correlation= PBE
                           (   1   4   3   4   0   0   0)

                                  Environ Setup Summary

          O. Andreussi, I. Dabo and N. Marzari, J. Chem. Phys. 136, 064102 (2012)
          F. Nattino, M. Truscott, N. Marzari, and O. Andreussi, J. Chem. Phys. 150, 041722 (2019)

     in publications or presentations arising from this work.

     Parameters

     compensation onset threshold      =               0.1000E+00
     static permittivity               =                    89.90
     surface tension in input (dyn/cm) =                    37.30
     surface tension in internal units =               0.4792E-04

     Solvent Boundary

     solvent mode                      =                    ionic
     derivatives method                =                   lowmem
     electrolyte derivatives method    =                   lowmem
     numerical core for derivatives    =                      fft
     switching function adopted        =                     SCCS
     density limit for vacuum region   =               0.5000E-02
     density limit for bulk solvent    =               0.1000E-03
     soft-sphere radius mode           =                    bondi
     soft-sphere softness              =                     0.50
     alpha                             =                     1.32

     Electrostatic Setup

     electrostatic problem to solve    =                    modpb
     numerical solver adopted          =                   newton
     type of auxiliary density adopted =                     none
     numerical core for poisson        =                      fft
     adopting a nested solver scheme
     inner solver                      =                       cg
     inner core                        =                      fft
     type of pbc corrections           =                parabolic
     numerical core for corrections    =                      1da

     celldm(1)=  12.983009  celldm(2)=   1.118034  celldm(3)=   6.872491
     celldm(4)=   0.000000  celldm(5)=   0.000000  celldm(6)=   0.000000

     crystal axes: (cart. coord. in units of alat)
               a(1) = (   1.000000   0.000000   0.000000 )
               a(2) = (   0.000000   1.118034   0.000000 )
               a(3) = (   0.000000   0.000000   6.872491 )

     reciprocal axes: (cart. coord. in units 2 pi/alat)
               b(1) = (  1.000000  0.000000  0.000000 )
               b(2) = (  0.000000  0.894427  0.000000 )
               b(3) = (  0.000000  0.000000  0.145508 )

     PseudoPot. # 1 for Li read from file:
     /home/ba3g18/Repos/Pseudopotentials/pslibrary.1.0.0/pbe/PSEUDOPOTENTIALS/Li.pbe-sl-kjpaw_psl.1.0.0.UPF
     MD5 check sum: 3f4d2cafebb47c6c3aa8ed472e6f074d
     Pseudo is Projector augmented-wave, Zval =  3.0
     Generated using 'atomic' code by A. Dal Corso  v.7.4
     Shape of augmentation charge: PSQ
     Using radial grid of 1017 points,  4 beta functions with:
                l(1) =   0
                l(2) =   0
                l(3) =   1
                l(4) =   1
     Q(r) pseudized with 0 coefficients

     atomic species   valence    mass     pseudopotential
     Li                3.00     6.94000     Li( 1.00)

      2 Sym. Ops. (no inversion) found

                                    s                        frac. trans.

      isym =  1     identity

 cryst.   s( 1) = (     1          0          0      )
                  (     0          1          0      )
                  (     0          0          1      )

 cart.    s( 1) = (  1.0000000  0.0000000  0.0000000 )
                  (  0.0000000  1.0000000  0.0000000 )
                  (  0.0000000  0.0000000  1.0000000 )

      isym =  2     inv. 180 deg rotation - cart. axis [1,0,0]

 cryst.   s( 2) = (    -1          0          0      )
                  (     0          1          0      )
                  (     0          0          1      )

 cart.    s( 2) = ( -1.0000000  0.0000000  0.0000000 )
                  (  0.0000000  1.0000000  0.0000000 )
                  (  0.0000000  0.0000000  1.0000000 )

     point group C_s (m)
     there are  2 classes
     the character table:

       E     s
A'     1.00  1.00
A''    1.00 -1.00

     the symmetry operations in each class and the name of the first element:

     E        1
          identity
     s        2
          inv. 180 deg rotation - cart. axis [1,0,0]

   Cartesian axes

     site n.     atom                  positions (alat units)
         1        Li     tau(   1) = (  -0.0000000   0.4547292   3.7086617  )
         2        Li     tau(   2) = (  -0.0000000   0.8914138   3.4987125  )
         3        Li     tau(   3) = (  -0.0000000   0.2262358   3.2707670  )
         4        Li     tau(   4) = (  -0.0000000   0.6419492   3.0386306  )
         5        Li     tau(   5) = (  -0.0000000   0.0704740   3.9477550  )
         6        Li     tau(   6) = (   0.2500000   0.5620329   3.3737787  )
         7        Li     tau(   7) = (   0.2499999   0.9987150   3.1638288  )
         8        Li     tau(   8) = (   0.2499999   0.2649328   2.9247322  )
         9        Li     tau(   9) = (   0.2500000   0.8114931   3.8338586  )
        10        Li     tau(  10) = (   0.2500002   0.1091766   3.6017224  )
        11        Li     tau(  11) = (   0.5000000   0.4547291   3.7086616  )
        12        Li     tau(  12) = (   0.5000000   0.8914136   3.4987123  )
        13        Li     tau(  13) = (   0.5000000   0.2262357   3.2707668  )
        14        Li     tau(  14) = (   0.5000000   0.6419493   3.0386301  )
        15        Li     tau(  15) = (   0.5000000   0.0704745   3.9477556  )
        16        Li     tau(  16) = (   0.7500000   0.5620329   3.3737787  )
        17        Li     tau(  17) = (   0.7500001   0.9987150   3.1638288  )
        18        Li     tau(  18) = (   0.7500000   0.2649328   2.9247322  )
        19        Li     tau(  19) = (   0.7499999   0.8114931   3.8338586  )
        20        Li     tau(  20) = (   0.7499998   0.1091766   3.6017224  )

   Crystallographic axes

     site n.     atom                  positions (cryst. coord.)
         1        Li     tau(   1) = ( -0.0000000  0.4067222  0.5396386  )
         2        Li     tau(   2) = ( -0.0000000  0.7973048  0.5090894  )
         3        Li     tau(   3) = ( -0.0000000  0.2023515  0.4759216  )
         4        Li     tau(   4) = ( -0.0000000  0.5741768  0.4421440  )
         5        Li     tau(   5) = ( -0.0000000  0.0630339  0.5744285  )
         6        Li     tau(   6) = (  0.2500000  0.5026975  0.4909106  )
         7        Li     tau(   7) = (  0.2499999  0.8932778  0.4603613  )
         8        Li     tau(   8) = (  0.2499999  0.2369631  0.4255709  )
         9        Li     tau(   9) = (  0.2500000  0.7258215  0.5578557  )
        10        Li     tau(  10) = (  0.2500002  0.0976505  0.5240781  )
        11        Li     tau(  11) = (  0.5000000  0.4067221  0.5396386  )
        12        Li     tau(  12) = (  0.5000000  0.7973046  0.5090894  )
        13        Li     tau(  13) = (  0.5000000  0.2023514  0.4759216  )
        14        Li     tau(  14) = (  0.5000000  0.5741769  0.4421439  )
        15        Li     tau(  15) = (  0.5000000  0.0630343  0.5744286  )
        16        Li     tau(  16) = (  0.7500000  0.5026975  0.4909106  )
        17        Li     tau(  17) = (  0.7500001  0.8932778  0.4603613  )
        18        Li     tau(  18) = (  0.7500000  0.2369631  0.4255709  )
        19        Li     tau(  19) = (  0.7499999  0.7258215  0.5578557  )
        20        Li     tau(  20) = (  0.7499998  0.0976505  0.5240781  )

     number of k points=    30  Marzari-Vanderbilt smearing, width (Ry)=  0.0100
                       cart. coord. in units 2pi/alat
        k(    1) = (   0.0000000   0.0000000   0.0000000), wk =   0.0222222
        k(    2) = (   0.0000000   0.0993808   0.0000000), wk =   0.0444444
        k(    3) = (   0.0000000   0.1987616   0.0000000), wk =   0.0444444
        k(    4) = (   0.0000000   0.2981424   0.0000000), wk =   0.0444444
        k(    5) = (   0.0000000   0.3975232   0.0000000), wk =   0.0444444
        k(    6) = (   0.1000000   0.0000000   0.0000000), wk =   0.0444444
        k(    7) = (   0.1000000   0.0993808   0.0000000), wk =   0.0888889
        k(    8) = (   0.1000000   0.1987616   0.0000000), wk =   0.0888889
        k(    9) = (   0.1000000   0.2981424   0.0000000), wk =   0.0888889
        k(   10) = (   0.1000000   0.3975232   0.0000000), wk =   0.0888889
        k(   11) = (   0.2000000   0.0000000   0.0000000), wk =   0.0444444
        k(   12) = (   0.2000000   0.0993808   0.0000000), wk =   0.0888889
        k(   13) = (   0.2000000   0.1987616   0.0000000), wk =   0.0888889
        k(   14) = (   0.2000000   0.2981424   0.0000000), wk =   0.0888889
        k(   15) = (   0.2000000   0.3975232   0.0000000), wk =   0.0888889
        k(   16) = (   0.3000000   0.0000000   0.0000000), wk =   0.0444444
        k(   17) = (   0.3000000   0.0993808   0.0000000), wk =   0.0888889
        k(   18) = (   0.3000000   0.1987616   0.0000000), wk =   0.0888889
        k(   19) = (   0.3000000   0.2981424   0.0000000), wk =   0.0888889
[...]

     total energy              =    -300.64142983 Ry
     estimated scf accuracy    <          1.1E-14 Ry
     electrostatic embedding   =      -0.03605407 Ry
     cavitation energy         =       0.02212806 Ry
     electrolyte free energy   =      -0.00156473 Ry
     correction to one-el term =       2.61595938 Ry

     iteration #103     ecut=    80.00 Ry     beta= 0.20
     Davidson diagonalization with overlap

     ethr =  1.00E-13,  avg # of iterations =  1.0

     negative rho (up, down):  3.087E-04 0.000E+00

     End of self-consistent calculation

          k = 0.0000 0.0000 0.0000 (203379 PWs)   bands (ev):

   -50.1621 -50.1621 -50.1607 -50.1607 -49.7890 -49.7890 -49.7875 -49.7875
   -49.4637 -49.4637 -49.4621 -49.4621 -49.2379 -49.2319 -49.2319 -49.2295
   -49.1879 -49.1826 -49.1826 -49.1795  -5.9836  -5.1081  -4.0985  -4.0556
    -3.8377  -3.5765  -3.5765  -3.1233  -3.1131  -2.7541  -2.7541  -2.4635
    -2.1793  -2.1793  -1.8966  -1.8312  -1.8312  -1.6641  -1.5944  -1.5944
    -1.1596  -0.4302  -0.1985  -0.1042  -0.1006

     occupation numbers
     1.0000   1.0000   1.0000   1.0000   1.0000   1.0000   1.0000   1.0000
     1.0000   1.0000   1.0000   1.0000   1.0000   1.0000   1.0000   1.0000
     1.0000   1.0000   1.0000   1.0000   1.0000   1.0000   1.0000   1.0000
     1.0000   1.0000   1.0000   1.0008   1.0012   0.7029   0.7029   0.0014
     0.0000   0.0000   0.0000   0.0000   0.0000   0.0000   0.0000   0.0000
     0.0000   0.0000   0.0000   0.0000   0.0000

[...]

          k = 0.4000 0.3975 0.0000 (203101 PWs)   bands (ev):

[...]

          k =-0.5000 0.0000 0.0000 (203092 PWs)   bands (ev):

[...]

          k =-0.5000 0.3975 0.0000 (202998 PWs)   bands (ev):

   -50.1614 -50.1614 -50.1614 -50.1614 -49.7883 -49.7883 -49.7883 -49.7883
   -49.4629 -49.4629 -49.4629 -49.4629 -49.2357 -49.2357 -49.2299 -49.2299
   -49.1861 -49.1861 -49.1802 -49.1802  -5.0141  -5.0141  -4.8063  -4.8063
    -4.1166  -4.1166  -3.8721  -3.8721  -2.8386  -2.8386  -2.4758  -2.4758
    -1.6633  -1.6633  -1.4759  -1.4759  -1.2896  -1.2896  -1.0531  -1.0531
    -0.3711  -0.3711  -0.2189  -0.2189   0.2663

     occupation numbers
     1.0000   1.0000   1.0000   1.0000   1.0000   1.0000   1.0000   1.0000
     1.0000   1.0000   1.0000   1.0000   1.0000   1.0000   1.0000   1.0000
     1.0000   1.0000   1.0000   1.0000   1.0000   1.0000   1.0000   1.0000
     1.0000   1.0000   1.0000   1.0000   1.0361   1.0361   0.0021   0.0021
     0.0000   0.0000   0.0000   0.0000   0.0000   0.0000   0.0000   0.0000
     0.0000   0.0000   0.0000   0.0000   0.0000

     the Fermi energy is    -2.6982 ev

!    total energy              =    -300.64142983 Ry
     total all-electron energy =      -300.641592 Ry
     estimated scf accuracy    <          8.2E-15 Ry
     smearing contrib. (-TS)   =      -0.00040205 Ry
     internal energy E=F+TS    =    -300.64102778 Ry

     The total energy is F=E-TS. E is the sum of the following terms:
     one-electron contribution =   -2707.32868913 Ry
     hartree contribution      =    1320.85516718 Ry
     xc contribution           =     -71.48248464 Ry
     ewald contribution        =    1152.94977918 Ry
     one-center paw contrib.   =       1.76473152 Ry
      -> PAW hartree energy AE =       7.43248098 Ry
      -> PAW hartree energy PS =      -7.20975287 Ry
      -> PAW xc energy AE      =      -3.48585015 Ry
      -> PAW xc energy PS      =       3.35136227 Ry
      -> total E_H with PAW    =    1321.07789529 Ry
      -> total E_XC with PAW   =     -71.61697252 Ry
     electrostatic embedding   =      -0.03605406 Ry
     cavitation energy         =       0.02212806 Ry
     electrolyte free energy   =      -0.00156473 Ry
     correction to one-el term =       2.61595885 Ry

     WARNING: you are using the parabolic pbc correction;
              the potential shift above must be added to
              band and Fermi energies.

     convergence has been achieved in 103 iterations
     The dielectric solvent contribution to forces
     atom    1 type  1   force =     0.00000000    0.00211380   -0.01731914
     atom    2 type  1   force =     0.00000000    0.00100458    0.00511313
     atom    3 type  1   force =     0.00000000    0.00724468   -0.00167216
     atom    4 type  1   force =     0.00000000   -0.02091722   -0.01072257
     atom    5 type  1   force =     0.00000000   -0.02525352    0.03106756
     atom    6 type  1   force =     0.00000000   -0.00100453   -0.00511507
     atom    7 type  1   force =    -0.00000000   -0.00211349    0.01731682
     atom    8 type  1   force =    -0.00000001    0.02525347   -0.03106975
     atom    9 type  1   force =     0.00000003    0.02091736    0.01072044
     atom   10 type  1   force =     0.00000000   -0.00724489    0.00166976
     atom   11 type  1   force =    -0.00000000    0.00211378   -0.01731911
     atom   12 type  1   force =    -0.00000000    0.00100457    0.00511313
     atom   13 type  1   force =    -0.00000000    0.00724470   -0.00167215
     atom   14 type  1   force =    -0.00000000   -0.02091724   -0.01072265
     atom   15 type  1   force =    -0.00000000   -0.02525359    0.03106767
     atom   16 type  1   force =    -0.00000000   -0.00100453   -0.00511507
     atom   17 type  1   force =    -0.00000000   -0.00211349    0.01731682
     atom   18 type  1   force =     0.00000001    0.02525347   -0.03106975
     atom   19 type  1   force =    -0.00000003    0.02091736    0.01072044
     atom   20 type  1   force =    -0.00000000   -0.00724489    0.00166976

     Forces acting on atoms (cartesian axes, Ry/au):

     atom    1 type  1   force =     0.00000000   -0.00000037   -0.00000014
     atom    2 type  1   force =     0.00000000   -0.00000049   -0.00000017
     atom    3 type  1   force =     0.00000000    0.00000000    0.00000015
     atom    4 type  1   force =     0.00000000   -0.00000000   -0.00000005
     atom    5 type  1   force =     0.00000000    0.00000032    0.00000003
     atom    6 type  1   force =     0.00000003    0.00000036    0.00000017
     atom    7 type  1   force =     0.00000002    0.00000016    0.00000012
     atom    8 type  1   force =    -0.00000000   -0.00000019    0.00000015
     atom    9 type  1   force =     0.00000002    0.00000008    0.00000007
     atom   10 type  1   force =    -0.00000002    0.00000007   -0.00000037
     atom   11 type  1   force =     0.00000000   -0.00000030   -0.00000012
     atom   12 type  1   force =     0.00000000   -0.00000045   -0.00000015
     atom   13 type  1   force =     0.00000000    0.00000005    0.00000012
     atom   14 type  1   force =     0.00000000    0.00000000    0.00000006
     atom   15 type  1   force =     0.00000000    0.00000026   -0.00000003
     atom   16 type  1   force =    -0.00000003    0.00000036    0.00000017
     atom   17 type  1   force =    -0.00000002    0.00000016    0.00000012
     atom   18 type  1   force =     0.00000000   -0.00000019    0.00000015
     atom   19 type  1   force =    -0.00000002    0.00000008    0.00000007
     atom   20 type  1   force =     0.00000002    0.00000007   -0.00000037
     The non-local contrib.  to forces
     atom    1 type  1   force =     0.00000000    0.00144503    0.02484645
     atom    2 type  1   force =     0.00000000    0.00454346    0.00340391
     atom    3 type  1   force =     0.00000000    0.00225764   -0.00359806
     atom    4 type  1   force =     0.00000000    0.01746559   -0.05389080
     atom    5 type  1   force =     0.00000000    0.01027106    0.08572985
     atom    6 type  1   force =     0.00000003   -0.00454368   -0.00340431
     atom    7 type  1   force =     0.00000004   -0.00144526   -0.02484630
     atom    8 type  1   force =    -0.00000002   -0.01027115   -0.08573005
     atom    9 type  1   force =     0.00000009   -0.01746553    0.05389090
     atom   10 type  1   force =    -0.00000005   -0.00225729    0.00359792
     atom   11 type  1   force =     0.00000000    0.00144505    0.02484643
     atom   12 type  1   force =     0.00000000    0.00454348    0.00340393
     atom   13 type  1   force =     0.00000000    0.00225769   -0.00359817
     atom   14 type  1   force =     0.00000000    0.01746564   -0.05389093
     atom   15 type  1   force =     0.00000000    0.01027093    0.08573001
     atom   16 type  1   force =    -0.00000003   -0.00454368   -0.00340431
     atom   17 type  1   force =    -0.00000004   -0.00144526   -0.02484630
     atom   18 type  1   force =     0.00000002   -0.01027115   -0.08573005
     atom   19 type  1   force =    -0.00000009   -0.01746553    0.05389090
     atom   20 type  1   force =     0.00000005   -0.00225729    0.00359792
     The ionic contribution  to forces
     atom    1 type  1   force =    -0.00000002    0.08459406    5.08609735
     atom    2 type  1   force =    -0.00000002   -0.04696285    1.03425300
     atom    3 type  1   force =    -0.00000003   -0.09905918   -2.88874254
     atom    4 type  1   force =    -0.00000002    0.33348855   -6.88595301
     atom    5 type  1   force =    -0.00000001    0.19275995    8.13459493
     atom    6 type  1   force =     0.00000057    0.04696153   -1.03424198
     atom    7 type  1   force =     0.00000058   -0.08460046   -5.08608434
     atom    8 type  1   force =     0.00000013   -0.19275826   -8.13460417
     atom    9 type  1   force =     0.00000062   -0.33348571    6.88595418
     atom   10 type  1   force =    -0.00000049    0.09906124    2.88873108
     atom   11 type  1   force =     0.00000001    0.08459567    5.08609563
     atom   12 type  1   force =     0.00000001   -0.04696252    1.03424890
     atom   13 type  1   force =     0.00000002   -0.09905879   -2.88874582
     atom   14 type  1   force =     0.00000001    0.33348894   -6.88595762
     atom   15 type  1   force =     0.00000001    0.19275945    8.13459967
     atom   16 type  1   force =    -0.00000056    0.04696152   -1.03424201
     atom   17 type  1   force =    -0.00000058   -0.08460045   -5.08608431
     atom   18 type  1   force =    -0.00000012   -0.19275825   -8.13460412
     atom   19 type  1   force =    -0.00000061   -0.33348571    6.88595415
     atom   20 type  1   force =     0.00000049    0.09906125    2.88873102
     The local contribution  to forces
     atom    1 type  1   force =     0.00000349   -0.08815326   -5.09362476
     atom    2 type  1   force =     0.00000348    0.04141429   -1.04277019
     atom    3 type  1   force =     0.00000290    0.08955685    2.89401288
     atom    4 type  1   force =     0.00000407   -0.33003695    6.95056632
     atom    5 type  1   force =     0.00000408   -0.17777720   -8.25139230
     atom    6 type  1   force =     0.00000412   -0.04141325    1.04276125
     atom    7 type  1   force =     0.00000381    0.08815934    5.09361420
     atom    8 type  1   force =     0.00000461    0.17777544    8.25140469
     atom    9 type  1   force =     0.00000341    0.33003396   -6.95056572
     atom   10 type  1   force =     0.00000492   -0.08955903   -2.89399966
     atom   11 type  1   force =     0.00000442   -0.08815480   -5.09362304
     atom   12 type  1   force =     0.00000440    0.04141401   -1.04276608
     atom   13 type  1   force =     0.00000557    0.08955644    2.89401622
     atom   14 type  1   force =     0.00000500   -0.33003737    6.95057124
     atom   15 type  1   force =     0.00000384   -0.17777655   -8.25139736
     atom   16 type  1   force =     0.00000527   -0.04141267    1.04276185
     atom   17 type  1   force =     0.00000502    0.08815934    5.09361359
     atom   18 type  1   force =     0.00000481    0.17777603    8.25140350
     atom   19 type  1   force =     0.00000484    0.33003396   -6.95056511
     atom   20 type  1   force =     0.00000389   -0.08955903   -2.89399844
     The core correction contribution to forces
     atom    1 type  1   force =     0.00000000    0.00000000    0.00000000
     atom    2 type  1   force =     0.00000000    0.00000000    0.00000000
     atom    3 type  1   force =     0.00000000    0.00000000    0.00000000
     atom    4 type  1   force =     0.00000000    0.00000000    0.00000000
     atom    5 type  1   force =     0.00000000    0.00000000    0.00000000
     atom    6 type  1   force =     0.00000000    0.00000000    0.00000000
     atom    7 type  1   force =     0.00000000    0.00000000    0.00000000
     atom    8 type  1   force =     0.00000000    0.00000000    0.00000000
     atom    9 type  1   force =     0.00000000    0.00000000    0.00000000
     atom   10 type  1   force =     0.00000000    0.00000000    0.00000000
     atom   11 type  1   force =     0.00000000    0.00000000    0.00000000
     atom   12 type  1   force =     0.00000000    0.00000000    0.00000000
     atom   13 type  1   force =     0.00000000    0.00000000    0.00000000
     atom   14 type  1   force =     0.00000000    0.00000000    0.00000000
     atom   15 type  1   force =     0.00000000    0.00000000    0.00000000
     atom   16 type  1   force =     0.00000000    0.00000000    0.00000000
     atom   17 type  1   force =     0.00000000    0.00000000    0.00000000
     atom   18 type  1   force =     0.00000000    0.00000000    0.00000000
     atom   19 type  1   force =     0.00000000    0.00000000    0.00000000
     atom   20 type  1   force =     0.00000000    0.00000000    0.00000000
     The Hubbard contrib.    to forces
     atom    1 type  1   force =     0.00000000    0.00000000    0.00000000
     atom    2 type  1   force =     0.00000000    0.00000000    0.00000000
     atom    3 type  1   force =     0.00000000    0.00000000    0.00000000
     atom    4 type  1   force =     0.00000000    0.00000000    0.00000000
     atom    5 type  1   force =     0.00000000    0.00000000    0.00000000
     atom    6 type  1   force =     0.00000000    0.00000000    0.00000000
     atom    7 type  1   force =     0.00000000    0.00000000    0.00000000
     atom    8 type  1   force =     0.00000000    0.00000000    0.00000000
     atom    9 type  1   force =     0.00000000    0.00000000    0.00000000
     atom   10 type  1   force =     0.00000000    0.00000000    0.00000000
     atom   11 type  1   force =     0.00000000    0.00000000    0.00000000
     atom   12 type  1   force =     0.00000000    0.00000000    0.00000000
     atom   13 type  1   force =     0.00000000    0.00000000    0.00000000
     atom   14 type  1   force =     0.00000000    0.00000000    0.00000000
     atom   15 type  1   force =     0.00000000    0.00000000    0.00000000
     atom   16 type  1   force =     0.00000000    0.00000000    0.00000000
     atom   17 type  1   force =     0.00000000    0.00000000    0.00000000
     atom   18 type  1   force =     0.00000000    0.00000000    0.00000000
     atom   19 type  1   force =     0.00000000    0.00000000    0.00000000
     atom   20 type  1   force =     0.00000000    0.00000000    0.00000000
     The SCF correction term to forces
     atom    1 type  1   force =    -0.00000000   -0.00000001   -0.00000004
     atom    2 type  1   force =    -0.00000000    0.00000001   -0.00000003
     atom    3 type  1   force =     0.00000000   -0.00000001    0.00000002
     atom    4 type  1   force =    -0.00000000    0.00000001    0.00000001
     atom    5 type  1   force =    -0.00000000    0.00000001   -0.00000002
     atom    6 type  1   force =     0.00000000   -0.00000001   -0.00000001
     atom    7 type  1   force =     0.00000000    0.00000001    0.00000003
     atom    8 type  1   force =    -0.00000000   -0.00000001   -0.00000000
     atom    9 type  1   force =     0.00000000   -0.00000001   -0.00000003
     atom   10 type  1   force =     0.00000000    0.00000001   -0.00000005
     atom   11 type  1   force =     0.00000000   -0.00000001   -0.00000005
     atom   12 type  1   force =    -0.00000000    0.00000000   -0.00000003
     atom   13 type  1   force =    -0.00000000   -0.00000001    0.00000003
     atom   14 type  1   force =     0.00000000    0.00000001    0.00000001
     atom   15 type  1   force =     0.00000000    0.00000000   -0.00000002
     atom   16 type  1   force =    -0.00000000   -0.00000001   -0.00000001
     atom   17 type  1   force =    -0.00000000    0.00000001    0.00000003
     atom   18 type  1   force =     0.00000000   -0.00000001   -0.00000000
     atom   19 type  1   force =    -0.00000000   -0.00000001   -0.00000003
     atom   20 type  1   force =    -0.00000000    0.00000001   -0.00000005

     Total force =     0.000001     Total SCF correction =     0.000000
     Message from routine punch:
     Nothing written, as per user request (disk_io='none')

     General routines

     Parallel routines

     PAW routines

     Environ routines

   This run was terminated on:   6:22: 5  26Dec2024

   JOB DONE.