     Program PWSCF v.7.4 starts on 23Jan2025 at  0:35:55

     Reading input from espresso.pwi
Warning: card &CELL ignored
Warning: card    PRESS_CONV_THR   = 0.1 ignored
Warning: card    CELL_DOFREE      = 'ALL' ignored
Warning: card / ignored
Warning: card &FCP ignored
Warning: card / ignored
Warning: card &RISM ignored
Warning: card / ignored

     Current dimensions of program PWSCF are:
     Max number of different atomic species (ntypx) = 10
     Max number of k-points (npk) =  40000
     Max angular momentum in pseudopotentials (lmaxx) =  4

     IMPORTANT: XC functional enforced from input :
     Exchange-correlation= PBE
                           (   1   4   3   4   0   0   0)
     Any further DFT definition will be discarded
     Please, verify this is what you really want

     Found identity + (  0.0000  0.5000 -0.0000) symmetry
     This is a supercell, fractional translations are disabled
     Message from routine setup:
     using ibrav=0 with symmetry is DISCOURAGED, use correct ibrav instead

     K-points division:     npool     =       2
     R & G space division:  proc/nbgrp/npool/nimage =     192
     Subspace diagonalization in iterative solution of the eigenvalue problem:
     a serial algorithm will be used

     Using Slab Decomposition

     bravais-lattice index     =            0
     lattice parameter (alat)  =      18.3607  a.u.
     unit-cell volume          =   22978.1537 (a.u.)^3
     number of atoms/cell      =           48
     number of atomic types    =            1
     number of electrons       =       144.00
     number of Kohn-Sham states=          108
     kinetic-energy cutoff     =      80.0000  Ry
     charge density cutoff     =     800.0000  Ry
     scf convergence threshold =      1.0E-06
     mixing beta               =       0.2000
     number of iterations used =            8  local-TF  mixing
     energy convergence thresh.=      1.0E-05
     force convergence thresh. =      3.9E-04
     Exchange-correlation= PBE
                           (   1   4   3   4   0   0   0)
     nstep                     =           50

     celldm(1)=  18.360747  celldm(2)=   0.000000  celldm(3)=   0.000000
     celldm(4)=   0.000000  celldm(5)=   0.000000  celldm(6)=   0.000000

     crystal axes: (cart. coord. in units of alat)
               a(1) = (   1.000000   0.000000   0.000000 )
               a(2) = (   0.500000   0.866025   0.000000 )
               a(3) = (   0.000000   0.000000   4.286607 )

     reciprocal axes: (cart. coord. in units 2 pi/alat)
               b(1) = (  1.000000 -0.577351  0.000000 )
               b(2) = (  0.000000  1.154701  0.000000 )
               b(3) = (  0.000000  0.000000  0.233285 )

     PseudoPot. # 1 for Li read from file:
     /iridisfs/home/ba3g18/Repos/Pseudopotentials/pslibrary.1.0.0/pbe/PSEUDOPOTENTIALS/Li.pbe-sl-kjpaw_psl.1.0.0.UPF
     MD5 check sum: 3f4d2cafebb47c6c3aa8ed472e6f074d
     Pseudo is Projector augmented-wave, Zval =  3.0
     Generated using 'atomic' code by A. Dal Corso  v.7.4
     Shape of augmentation charge: PSQ
     Using radial grid of 1017 points,  4 beta functions with:
                l(1) =   0
                l(2) =   0
                l(3) =   1
                l(4) =   1
     Q(r) pseudized with 0 coefficients

     atomic species   valence    mass     pseudopotential
     Li                3.00     6.94000     Li( 1.00)

      2 Sym. Ops. (no inversion) found

   Cartesian axes

     site n.     atom                  positions (alat units)
         1        Li     tau(   1) = (  -0.0000000   0.0000010   2.0856780  )
         2        Li     tau(   2) = (   0.2499992   0.1443576   1.6978534  )
         3        Li     tau(   3) = (   0.5000000   0.2886818   1.8826846  )
         4        Li     tau(   4) = (   0.0000000   0.0000142   1.7696415  )
         5        Li     tau(   5) = (   0.2499998   0.1443411   1.9929863  )
         6        Li     tau(   6) = (   0.5000000   0.2887055   1.5733516  )
         7        Li     tau(   7) = (   0.0000000  -0.0000303   2.7132557  )
         8        Li     tau(   8) = (   0.2500000   0.1443342   2.2936205  )
         9        Li     tau(   9) = (   0.5000000   0.2886611   2.5169658  )
        10        Li     tau(  10) = (  -0.0000000  -0.0000065   2.4039226  )
        11        Li     tau(  11) = (   0.2500006   0.1443177   2.5887535  )
        12        Li     tau(  12) = (   0.5000000   0.2886743   2.2009294  )
        13        Li     tau(  13) = (   0.2500002   0.4330134   2.0856773  )
        14        Li     tau(  14) = (   0.5000000   0.5773714   1.6978532  )
        15        Li     tau(  15) = (   0.7500003   0.7216941   1.8826847  )
        16        Li     tau(  16) = (   0.2500007   0.4330264   1.7696409  )
        17        Li     tau(  17) = (   0.5000000   0.5773538   1.9929862  )
        18        Li     tau(  18) = (   0.7500031   0.7217164   1.5733514  )
        19        Li     tau(  19) = (   0.2499974   0.4329838   2.7132557  )
        20        Li     tau(  20) = (   0.5000000   0.5773467   2.2936204  )
        21        Li     tau(  21) = (   0.7499995   0.7216739   2.5169660  )
        22        Li     tau(  22) = (   0.2499999   0.4330061   2.4039223  )
        23        Li     tau(  23) = (   0.5000000   0.5773290   2.5887534  )
        24        Li     tau(  24) = (   0.7500001   0.7216868   2.2009296  )
        25        Li     tau(  25) = (   0.5000000   0.0000012   2.0856773  )
        26        Li     tau(  26) = (   0.7500008   0.1443576   1.6978534  )
        27        Li     tau(  27) = (   1.0000000   0.2886822   1.8826847  )
        28        Li     tau(  28) = (   0.5000000   0.0000150   1.7696409  )
        29        Li     tau(  29) = (   0.7500002   0.1443411   1.9929863  )
        30        Li     tau(  30) = (   1.0000000   0.2887091   1.5733513  )
        31        Li     tau(  31) = (   0.5000000  -0.0000334   2.7132557  )
        32        Li     tau(  32) = (   0.7500000   0.1443342   2.2936205  )
        33        Li     tau(  33) = (   1.0000000   0.2886605   2.5169660  )
        34        Li     tau(  34) = (   0.5000000  -0.0000066   2.4039223  )
        35        Li     tau(  35) = (   0.7499993   0.1443177   2.5887535  )
        36        Li     tau(  36) = (   1.0000000   0.2886745   2.2009296  )
        37        Li     tau(  37) = (   0.7499998   0.4330134   2.0856773  )
        38        Li     tau(  38) = (   1.0000000   0.5773705   1.6978578  )
        39        Li     tau(  39) = (   1.2499997   0.7216942   1.8826847  )
        40        Li     tau(  40) = (   0.7499993   0.4330264   1.7696409  )
        41        Li     tau(  41) = (   1.0000000   0.5773536   1.9929881  )
        42        Li     tau(  42) = (   1.2499969   0.7217164   1.5733514  )
        43        Li     tau(  43) = (   0.7500026   0.4329838   2.7132557  )
        44        Li     tau(  44) = (   1.0000000   0.5773467   2.2936198  )
        45        Li     tau(  45) = (   1.2500005   0.7216739   2.5169660  )
        46        Li     tau(  46) = (   0.7500001   0.4330061   2.4039223  )
        47        Li     tau(  47) = (   1.0000000   0.5773298   2.5887501  )
        48        Li     tau(  48) = (   1.2499999   0.7216868   2.2009296  )

     number of k points=    16  Marzari-Vanderbilt smearing, width (Ry)=  0.0100
                       cart. coord. in units 2pi/alat
        k(    1) = (   0.0000000   0.0000000   0.0000000), wk =   0.0408163
        k(    2) = (   0.0000000   0.1649573   0.0000000), wk =   0.0816327
        k(    3) = (   0.0000000   0.3299146   0.0000000), wk =   0.0816327
        k(    4) = (   0.0000000   0.4948719   0.0000000), wk =   0.0816327
        k(    5) = (   0.1428571   0.2474359   0.0000000), wk =   0.1632653
        k(    6) = (   0.1428571   0.4123932   0.0000000), wk =   0.1632653
        k(    7) = (   0.1428571  -0.5773505   0.0000000), wk =   0.0816327
        k(    8) = (   0.2857143  -0.6598292   0.0000000), wk =   0.1632653
        k(    9) = (  -0.1428571   0.0824786   0.0000000), wk =   0.1632653
        k(   10) = (  -0.2857143   0.1649573   0.0000000), wk =   0.1632653
        k(   11) = (  -0.4285714   0.2474359   0.0000000), wk =   0.1632653
        k(   12) = (   0.2857143   0.0000000   0.0000000), wk =   0.0816327
        k(   13) = (  -0.2857143   0.3299146   0.0000000), wk =   0.1632653
        k(   14) = (   0.4285714   0.0824786   0.0000000), wk =   0.1632653
        k(   15) = (   0.5714286  -0.1649573   0.0000000), wk =   0.1632653
        k(   16) = (  -0.4285714  -0.5773505   0.0000000), wk =   0.0816327

     Initial potential from superposition of free atoms

     starting charge     143.7788, renormalised to     144.0000

     negative rho (up, down):  3.930E-03 0.000E+00
     Starting wfcs are  240 randomized atomic wfcs
     Checking if some PAW data can be deallocated...

     Self-consistent Calculation

     iteration #  1     ecut=    80.00 Ry     beta= 0.20
     Davidson diagonalization with overlap
     ethr =  1.00E-02,  avg # of iterations =  3.4

     negative rho (up, down):  4.569E-04 0.000E+00

     total energy              =    -722.01280060 Ry
     estimated scf accuracy    <       5.47390071 Ry

[...]

     iteration # 14     ecut=    80.00 Ry     beta= 0.20
     Davidson diagonalization with overlap
     c_bands:  1 eigenvalues not converged
     ethr =  8.74E-05,  avg # of iterations = 11.5

[...]

     End of self-consistent calculation

          k = 0.0000 0.0000 0.0000 (277431 PWs)   bands (ev):

   -49.3612 -49.3612 -49.3612 -49.3612 -49.3612 -49.3612 -49.3612 -49.3612
   -48.5609 -48.5609 -48.5606 -48.5606 -48.5606 -48.5606 -48.5606 -48.5606
   -48.3443 -48.3442 -48.3442 -48.3442 -48.3442 -48.3442 -48.3441 -48.3441
   -48.3040 -48.3001 -48.3000 -48.3000 -48.2967 -48.2951 -48.2951 -48.2950
   -48.2851 -48.2851 -48.2851 -48.2848 -48.2816 -48.2816 -48.2816 -48.2768
   -48.1919 -48.1919 -48.1918 -48.1918 -48.1918 -48.1918 -48.1915 -48.1914
    -5.1689  -4.7547  -4.0187  -3.5789  -3.5789  -3.5789  -3.5776  -3.5776
    -3.5776  -3.1674  -3.1674  -3.1674  -3.1575  -3.1575  -3.1574  -3.0951
    -2.4350  -2.4350  -2.4350  -2.4058  -2.4058  -2.4058  -2.1354  -1.6226
    -1.6226  -1.6226  -1.3948  -1.3948  -1.3948  -1.3015  -1.3015  -1.3015
    -0.9954  -0.8040  -0.8040  -0.8040  -0.5991  -0.5990  -0.5990  -0.0718
     0.0196   0.0197   0.0197   0.1402   0.1402   0.1402   0.5853   0.5853
     0.5854   0.7119   0.7121   0.8092   0.8431   0.8433   0.9455   1.1777
     1.2544   1.2580   1.2581   1.2639

[...]

          k =-0.1429 0.0825 0.0000 (277535 PWs)   bands (ev):

[...]

     the Fermi energy is    -1.7584 ev

!    total energy              =    -721.71183618 Ry
     total all-electron energy =      -721.712226 Ry
     estimated scf accuracy    <       0.00000081 Ry
     smearing contrib. (-TS)   =      -0.00131085 Ry
     internal energy E=F+TS    =    -721.71052533 Ry

     The total energy is F=E-TS. E is the sum of the following terms:
     one-electron contribution =   -6440.70741234 Ry
     hartree contribution      =    3147.21674333 Ry
     xc contribution           =    -171.90811931 Ry
[...]
Li               9.7160888200        2.8048653238       18.2921486001
Li               4.8580443900        0.0001458524       17.1940234540
Li               7.2870678720        1.4024293703       19.3641323158
Li               9.7160887400        2.8051227320       15.2873071119
Li               4.8580444000       -0.0003220477       26.3617485119
Li               7.2870667538        1.4023636512       22.2849191918
Li               9.7160888300        2.8046500948       24.4550284043
Li               4.8580444000       -0.0000650111       23.3569031082
Li               7.2870597546        1.4022058457       25.1522878911
Li               9.7160888200        2.8047878443       21.3843387448
Li               7.2870646621        4.2071969315       20.2647166251
Li               9.7160888400        5.6097864986       16.4968078810
Li              12.1451084101        7.0120467664       18.2921502531
Li               7.2870603810        4.2073219893       17.1940234379
Li               9.7160888300        5.6096209010       19.3641461399
Li              12.1450804665        7.0122580004       15.2873068436
Li               7.2870922158        4.2069104098       26.3617476325
Li               9.7160888300        5.6095508909       22.2849147451
Li              12.1451177397        7.0118470852       24.4550293931
Li               7.2870674570        4.2071237148       23.3569046615
Li               9.7160888300        5.6093907342       25.1522546625
Li              12.1451116699        7.0119740197       21.3843371059

     Message from routine punch:
     Nothing written, as per user request (disk_io='none')
     NEW-OLD atomic charge density approx. for the potential

[...]

     Threshold (ethr) on eigenvalues was too large:
     Diagonalizing with lowered threshold

     Davidson diagonalization with overlap
     ethr =  7.82E-09,  avg # of iterations =  2.0

[...]

     Total force =     0.002950     Total SCF correction =     0.000153
     Energy error            =      9.9E-06 Ry
     Gradient error          =      8.4E-04 Ry/Bohr

[...]

     energy             old  =    -721.7118361791 Ry
     energy             new  =    -721.7118460311 Ry

     CASE: energy            _new < energy            _old

     WARNING: bfgs curvature condition failed, Theta= 0.875
     new trust radius        =       0.0010104866 bohr
     new conv_thr            =            1.0E-12 Ry

[...]

     iteration # 10     ecut=    80.00 Ry     beta= 0.20
     Davidson diagonalization with overlap
     c_bands:  1 eigenvalues not converged
     ethr =  3.90E-13,  avg # of iterations =  5.1

[...]

     number of scf cycles    =  18
     number of bfgs steps    =  17

     energy             old  =    -721.7123118938 Ry
     energy             new  =    -721.7123301620 Ry

     CASE: energy            _new < energy            _old

     new trust radius        =       0.0048711171 bohr
     new conv_thr            =            1.0E-12 Ry

ATOMIC_POSITIONS (angstrom)
Li              -0.0000000100        0.0000934946       20.2722371892
Li               2.4290448659        1.4025777564       16.5364754062
Li               4.8580444100        2.8049370324       18.3135124991
Li               0.0000000100        0.0001852725       17.2148027035
Li               2.4290449869        1.4025338909       19.3755108277
Li               4.8580445000        2.8048599771       15.3429127541
Li              -0.0000000000       -0.0001136341       26.3060906061
Li               2.4290039162        1.4022575161       22.2736060280
Li               4.8580444100        2.8046140987       24.4342007420
Li              -0.0000000100       -0.0001271985       23.3355536592
Li               2.4290236420        1.4022248981       25.1126058679
Li               4.8580444200        2.8047721250       21.3768437009
Li               2.4290011176        4.2072101492       20.2722264750
Li               4.8580443900        5.6096800345       16.5364197538
Li               7.2870249551        7.0121135439       18.3135063324
Li               2.4289699480        4.2074219468       17.2148973799
Li               4.8580444100        5.6097304946       19.3755263103
Li               7.2870347717        7.0120704224       15.3429472424
Li               2.4289258578        4.2070747198       26.3060912859
Li               4.8580444000        5.6094311229       22.2736999472
Li               7.2870228623        7.0118537154       24.4340087444
Li               2.4290263473        4.2070367150       23.3355658264
Li               4.8580444000        5.6093383946       25.1128667512
Li               7.2870266130        7.0119337935       21.3768444826
Li               4.8580444000       -0.0000098772       20.2722456097
Li               7.2870439541        1.4025777364       16.5364755562
Li               9.7160888200        2.8049066546       18.3135361055
Li               4.8580443900        0.0001770738       17.2149159320
Li               7.2870438331        1.4025338909       19.3755109077
Li               9.7160887400        2.8049398570       15.3429376983
Li               4.8580444000       -0.0001112068       26.3060705653
Li               7.2870849038        1.4022575161       22.2736060780
Li               9.7160888300        2.8046375045       24.4342420823
Li               4.8580444000       -0.0001257018       23.3355394748
Li               7.2870651780        1.4022248881       25.1126059079
Li               9.7160888200        2.8047396813       21.3768935087
Li               7.2870876924        4.2072101592       20.2722264750
Li               9.7160888400        5.6097882937       16.5362277127
Li              12.1451526949        7.0121135539       18.3135063424
Li               7.2871188620        4.2074219668       17.2148973899
Li               9.7160888300        5.6097062125       19.3754458492
Li              12.1451428783        7.0120705324       15.3429472524
Li               7.2871629522        4.2070747298       26.3060912759
Li               9.7160888300        5.6094703823       22.2735035957
Li              12.1451547877        7.0118537154       24.4340087444
Li               7.2870624727        4.2070367150       23.3355658164
Li               9.7160888300        5.6094565371       25.1125192019
Li              12.1451510470        7.0119338035       21.3768444826

     Message from routine punch:
     Nothing written, as per user request (disk_io='none')
     NEW-OLD atomic charge density approx. for the potential

[...]

     Self-consistent Calculation

[...]

     Threshold (ethr) on eigenvalues was too large:
     Diagonalizing with lowered threshold

     Davidson diagonalization with overlap
     ethr =  1.11E-08,  avg # of iterations =  2.4

[...]

     total energy              =    -721.71233378 Ry
     estimated scf accuracy    <          6.3E-12 Ry

     iteration # 21     ecut=    80.00 Ry     beta= 0.20
     Davidson diagonalization with overlap
     ethr =  1.00E-13,  avg # of iterations =  2.0

     negative rho (up, down):  4.231E-04 0.000E+00

     End of self-consistent calculation

[...]

          k = 0.5714-0.1650 0.0000 (277716 PWs)   bands (ev):

[...]

          k =-0.4286-0.5774 0.0000 (277774 PWs)   bands (ev):

   -49.3446 -49.3446 -49.3446 -49.3446 -49.3445 -49.3445 -49.3445 -49.3445
   -48.5517 -48.5517 -48.5516 -48.5516 -48.5516 -48.5515 -48.5515 -48.5514
   -48.3307 -48.3307 -48.3307 -48.3307 -48.3307 -48.3307 -48.3307 -48.3306
   -48.2956 -48.2949 -48.2949 -48.2935 -48.2891 -48.2888 -48.2888 -48.2881
   -48.2753 -48.2753 -48.2753 -48.2737 -48.2729 -48.2694 -48.2694 -48.2685
   -48.1756 -48.1756 -48.1754 -48.1754 -48.1754 -48.1754 -48.1754 -48.1753
    -4.7936  -4.5670  -4.5670  -4.3740  -4.1472  -4.1472  -3.6255  -3.3974
    -3.3974  -3.2239  -3.2214  -2.8366  -2.7894  -2.7579  -2.6805  -2.4493
    -2.4493  -2.3730  -2.0376  -2.0164  -1.8906  -1.8906  -1.7336  -1.5997
    -1.5409  -1.5409  -1.5162  -1.5162  -1.4540  -1.4540  -1.2744  -1.2706
    -1.1721  -1.0832  -1.0831  -1.0378  -0.8497  -0.8348  -0.8347  -0.8215
    -0.7223  -0.5962  -0.4160  -0.4160  -0.3673  -0.0696   0.0008   0.0009
     0.1969   0.4727   0.4727   0.5267   0.6530   0.7600   0.8564   0.8564
     1.0726   1.0726   1.1185   1.3551

     the Fermi energy is    -1.7637 ev

!    total energy              =    -721.71233381 Ry
     total all-electron energy =      -721.712724 Ry
     estimated scf accuracy    <          3.6E-13 Ry
     smearing contrib. (-TS)   =      -0.00086460 Ry
     internal energy E=F+TS    =    -721.71146920 Ry

     The total energy is F=E-TS. E is the sum of the following terms:
     one-electron contribution =   -6481.78371500 Ry
     hartree contribution      =    3167.82322246 Ry
     xc contribution           =    -171.96939888 Ry
     ewald contribution        =    2759.98656781 Ry
     one-center paw contrib.   =       4.23185442 Ry

     convergence has been achieved in  21 iterations

     Forces acting on atoms (cartesian axes, Ry/au):

     atom    1 type  1   force =     0.00000000   -0.00000107   -0.00014912
     atom    2 type  1   force =    -0.00000057    0.00000005   -0.00010444
     atom    3 type  1   force =     0.00000000    0.00000163   -0.00016558
     atom    4 type  1   force =     0.00000000   -0.00000323    0.00023897
     atom    5 type  1   force =     0.00000029   -0.00000347    0.00033416
     atom    6 type  1   force =     0.00000000    0.00000216    0.00002422
     atom    7 type  1   force =     0.00000000   -0.00000011   -0.00002341
     atom    8 type  1   force =     0.00000147    0.00000277   -0.00033565
     atom    9 type  1   force =     0.00000000    0.00000115   -0.00023700
     atom   10 type  1   force =     0.00000000    0.00000083    0.00016420
     atom   11 type  1   force =     0.00000008    0.00000130    0.00010488
     atom   12 type  1   force =     0.00000000   -0.00000203    0.00014781
     atom   13 type  1   force =     0.00000052    0.00000141   -0.00014685
     atom   14 type  1   force =     0.00000000    0.00000008   -0.00010161
     atom   15 type  1   force =     0.00000129    0.00000159   -0.00016469
     atom   16 type  1   force =     0.00000064   -0.00000409    0.00023628
     atom   17 type  1   force =     0.00000000   -0.00000332    0.00033488
     atom   18 type  1   force =    -0.00000114    0.00000369    0.00002277
     atom   19 type  1   force =    -0.00000152   -0.00000222   -0.00002232
     atom   20 type  1   force =     0.00000000    0.00000375   -0.00033372
     atom   21 type  1   force =    -0.00000037   -0.00000231   -0.00023104
     atom   22 type  1   force =    -0.00000110   -0.00000023    0.00016391
     atom   23 type  1   force =     0.00000000    0.00000448    0.00009681
     atom   24 type  1   force =     0.00000046   -0.00000056    0.00014470
     atom   25 type  1   force =     0.00000000    0.00000207   -0.00014756
     atom   26 type  1   force =     0.00000057    0.00000005   -0.00010444
     atom   27 type  1   force =     0.00000000    0.00000051   -0.00016525
     atom   28 type  1   force =     0.00000000   -0.00000330    0.00023658
     atom   29 type  1   force =    -0.00000029   -0.00000347    0.00033416
     atom   30 type  1   force =     0.00000000   -0.00000045    0.00002416
     atom   31 type  1   force =     0.00000000   -0.00000248   -0.00002315
     atom   32 type  1   force =    -0.00000147    0.00000277   -0.00033565
     atom   33 type  1   force =     0.00000000   -0.00000014   -0.00023828
     atom   34 type  1   force =     0.00000000    0.00000014    0.00016359
     atom   35 type  1   force =    -0.00000008    0.00000130    0.00010488
     atom   36 type  1   force =     0.00000000    0.00000072    0.00014744
     atom   37 type  1   force =    -0.00000052    0.00000141   -0.00014685
     atom   38 type  1   force =     0.00000000   -0.00000027   -0.00009586
     atom   39 type  1   force =    -0.00000129    0.00000159   -0.00016469
     atom   40 type  1   force =    -0.00000064   -0.00000409    0.00023628
     atom   41 type  1   force =     0.00000000   -0.00000250    0.00032823
     atom   42 type  1   force =     0.00000114    0.00000369    0.00002277
     atom   43 type  1   force =     0.00000152   -0.00000222   -0.00002232
     atom   44 type  1   force =     0.00000000    0.00000231   -0.00033319
     atom   45 type  1   force =     0.00000037   -0.00000231   -0.00023104
     atom   46 type  1   force =     0.00000110   -0.00000023    0.00016391
     atom   47 type  1   force =     0.00000000    0.00000320    0.00010342
     atom   48 type  1   force =    -0.00000046   -0.00000056    0.00014470

     Total force =     0.001346     Total SCF correction =     0.000010
     Energy error            =      3.6E-06 Ry
     Gradient error          =      3.4E-04 Ry/Bohr

     bfgs converged in  19 scf cycles and  18 bfgs steps
     (criteria: energy <  1.0E-05 Ry, force <  3.9E-04 Ry/Bohr)

     End of BFGS Geometry Optimization

     Final energy             =    -721.7123338080 Ry

     File ./pwscf.bfgs deleted, as requested
Begin final coordinates

ATOMIC_POSITIONS (angstrom)
Li              -0.0000000100        0.0000934946       20.2722371892
Li               2.4290448659        1.4025777564       16.5364754062
Li               4.8580444100        2.8049370324       18.3135124991
Li               0.0000000100        0.0001852725       17.2148027035
Li               2.4290449869        1.4025338909       19.3755108277
Li               4.8580445000        2.8048599771       15.3429127541
Li              -0.0000000000       -0.0001136341       26.3060906061
Li               2.4290039162        1.4022575161       22.2736060280
Li               4.8580444100        2.8046140987       24.4342007420
Li              -0.0000000100       -0.0001271985       23.3355536592
Li               2.4290236420        1.4022248981       25.1126058679
Li               4.8580444200        2.8047721250       21.3768437009
Li               2.4290011176        4.2072101492       20.2722264750
Li               4.8580443900        5.6096800345       16.5364197538
Li               7.2870249551        7.0121135439       18.3135063324
Li               2.4289699480        4.2074219468       17.2148973799
Li               4.8580444100        5.6097304946       19.3755263103
Li               7.2870347717        7.0120704224       15.3429472424
Li               2.4289258578        4.2070747198       26.3060912859
Li               4.8580444000        5.6094311229       22.2736999472
Li               7.2870228623        7.0118537154       24.4340087444
Li               2.4290263473        4.2070367150       23.3355658264
Li               4.8580444000        5.6093383946       25.1128667512
Li               7.2870266130        7.0119337935       21.3768444826
Li               4.8580444000       -0.0000098772       20.2722456097
Li               7.2870439541        1.4025777364       16.5364755562
Li               9.7160888200        2.8049066546       18.3135361055
Li               4.8580443900        0.0001770738       17.2149159320
Li               7.2870438331        1.4025338909       19.3755109077
Li               9.7160887400        2.8049398570       15.3429376983
Li               4.8580444000       -0.0001112068       26.3060705653
Li               7.2870849038        1.4022575161       22.2736060780
Li               9.7160888300        2.8046375045       24.4342420823
Li               4.8580444000       -0.0001257018       23.3355394748
Li               7.2870651780        1.4022248881       25.1126059079
Li               9.7160888200        2.8047396813       21.3768935087
Li               7.2870876924        4.2072101592       20.2722264750
Li               9.7160888400        5.6097882937       16.5362277127
Li              12.1451526949        7.0121135539       18.3135063424
Li               7.2871188620        4.2074219668       17.2148973899
Li               9.7160888300        5.6097062125       19.3754458492
Li              12.1451428783        7.0120705324       15.3429472524
Li               7.2871629522        4.2070747298       26.3060912759
Li               9.7160888300        5.6094703823       22.2735035957
Li              12.1451547877        7.0118537154       24.4340087444
Li               7.2870624727        4.2070367150       23.3355658164
Li               9.7160888300        5.6094565371       25.1125192019
Li              12.1451510470        7.0119338035       21.3768444826
End final coordinates

     Message from routine punch:
     Nothing written, as per user request (disk_io='none')

     General routines

     Parallel routines

   This run was terminated on:   1:13: 3  23Jan2025

   JOB DONE.