     Program PWSCF v.7.4 starts on  5Jan2025 at  1:51:38
        Git branch: develop
        Last git commit: e877ff360aceba4b8d76ffc2fb1c70545fc5dd57
        Last git commit date: Sat Jan 4 12:56:15 2025 +0000
        Last git commit subject: Merge branch 'orthoU' into 'develop'

     Reading input from espresso.pwi
Warning: card &CELL ignored
Warning: card    PRESS_CONV_THR   = 0.1 ignored
Warning: card    CELL_DOFREE      = 'ALL' ignored
Warning: card / ignored
Warning: card &FCP ignored
Warning: card / ignored
Warning: card &RISM ignored
Warning: card / ignored

     Current dimensions of program PWSCF are:
     Max number of different atomic species (ntypx) = 10
     Max number of k-points (npk) =  40000
     Max angular momentum in pseudopotentials (lmaxx) =  4

     IMPORTANT: XC functional enforced from input :
     Exchange-correlation= PBE
                           (   1   4   3   4   0   0   0)
     Any further DFT definition will be discarded
     Please, verify this is what you really want

     Reading input from environ.in:
     * using ionic solvent mode
     * setting boundary derivatives method to SSCS default
     * setting electrolyte-boundary derivatives method to SSCS default

Environ Warning (1001): card EOF ignored

     K-points division:     npool     =       2
     R & G space division:  proc/nbgrp/npool/nimage =     180
     Subspace diagonalization in iterative solution of the eigenvalue problem:
     a serial algorithm will be used

     Using Slab Decomposition

     bravais-lattice index     =           12
     lattice parameter (alat)  =      12.9830  a.u.
     unit-cell volume          =   12574.0527 (a.u.)^3
     number of atoms/cell      =           20
     number of atomic types    =            1
     number of electrons       =        60.00
     number of Kohn-Sham states=           45
     kinetic-energy cutoff     =      80.0000  Ry
     charge density cutoff     =     800.0000  Ry
     scf convergence threshold =      1.0E-06
     mixing beta               =       0.2000
     number of iterations used =            8  local-TF  mixing
     energy convergence thresh.=      1.0E-05
     force convergence thresh. =      3.9E-04
     Exchange-correlation= PBE
                           (   1   4   3   4   0   0   0)
     nstep                     =          999

                                  Environ Setup Summary

          O. Andreussi, I. Dabo and N. Marzari, J. Chem. Phys. 136, 064102 (2012)
          F. Nattino, M. Truscott, N. Marzari, and O. Andreussi, J. Chem. Phys. 150, 041722 (2019)

     in publications or presentations arising from this work.

     Parameters

     compensation onset threshold      =               0.1000E+00
     static permittivity               =                    89.90
     surface tension in input (dyn/cm) =                    37.30
     surface tension in internal units =               0.4792E-04

     Solvent Boundary

     solvent mode                      =                    ionic
     derivatives method                =                   lowmem
     electrolyte derivatives method    =                   lowmem
     numerical core for derivatives    =                      fft
     switching function adopted        =                     SCCS
     density limit for vacuum region   =               0.5000E-02
     density limit for bulk solvent    =               0.1000E-03
     soft-sphere radius mode           =                    bondi
     soft-sphere softness              =                     0.50
     alpha                             =                     1.32

     Electrostatic Setup

     electrostatic problem to solve    =                    modpb
     numerical solver adopted          =                   newton
     type of auxiliary density adopted =                     none
     numerical core for poisson        =                      fft
     adopting a nested solver scheme
     inner solver                      =                       cg
     inner core                        =                      fft
     type of pbc corrections           =                parabolic
     numerical core for corrections    =                      1da

     >>>>> Grand-Canonical SCF is activated <<<<<
     Initial Total Charge  =     0.000000 e
     Target Fermi Energy   =    -3.904000 eV
     Thr. of Fermi Energy  =     0.001000 eV
     Wave-shift of Kerker  =     0.400000 bohr^-1
     Wave-shift of Hartree =     1.500000 bohr^-1
     Mixing Rate of Fermi  =     0.050000

     celldm(1)=  12.983009  celldm(2)=   0.829156  celldm(3)=   7.267908
     celldm(4)=  -0.301511  celldm(5)=   0.000000  celldm(6)=   0.000000

     crystal axes: (cart. coord. in units of alat)
               a(1) = (   1.000000   0.000000   0.000000 )
               a(2) = (  -0.250000   0.790569   0.000000 )
               a(3) = (   0.000000   0.000000   7.267908 )

     reciprocal axes: (cart. coord. in units 2 pi/alat)
               b(1) = (  1.000000  0.316228  0.000000 )
               b(2) = (  0.000000  1.264912  0.000000 )
               b(3) = (  0.000000  0.000000  0.137591 )

     PseudoPot. # 1 for Li read from file:
     /home/mmm1182/Repos/Pseudopotentials/pslibrary/Li.pbe-sl-kjpaw_psl.1.0.0.UPF
     MD5 check sum: f40bb4162937df3f7c561f1969c76545
     Pseudo is Projector augmented-wave, Zval =  3.0
     Generated using 'atomic' code by A. Dal Corso  v.7.3.1
     Shape of augmentation charge: PSQ
     Using radial grid of 1017 points,  4 beta functions with:
                l(1) =   0
                l(2) =   0
                l(3) =   1
                l(4) =   1
     Q(r) pseudized with 0 coefficients

     atomic species   valence    mass     pseudopotential
     Li                3.00     6.94000     Li( 1.00)

     No symmetry found

                                    s                        frac. trans.

      isym =  1     identity

 cryst.   s( 1) = (     1          0          0      )
                  (     0          1          0      )
                  (     0          0          1      )

 cart.    s( 1) = (  1.0000000 -0.0000000  0.0000000 )
                  (  0.0000000  1.0000000  0.0000000 )
                  (  0.0000000  0.0000000  1.0000000 )

     point group C_1 (1)
     there are  1 classes
     the character table:

       E
A      1.00

     the symmetry operations in each class and the name of the first element:

     E        1
          identity

   Cartesian axes

     site n.     atom                  positions (alat units)
         1        Li     tau(   1) = (   0.2502963   0.3204171   3.0702267  )
         2        Li     tau(   2) = (   0.0002863   0.6453842   3.2428198  )
         3        Li     tau(   3) = (   0.0001726   0.1676813   3.3840503  )
         4        Li     tau(   4) = (   0.2500940   0.4722733   3.5608164  )
         5        Li     tau(   5) = (   0.2499021   0.0020099   3.7071725  )
         6        Li     tau(   6) = (  -0.0001739   0.3066287   3.8838669  )
         7        Li     tau(   7) = (   0.2497029   0.6195145   4.0251277  )
         8        Li     tau(   8) = (   0.2497012   0.1539788   4.1976142  )
         9        Li     tau(   9) = (  -0.0003886   0.5081047   4.3736774  )
        10        Li     tau(  10) = (   0.5003892  -0.0336773   2.8941273  )
        11        Li     tau(  11) = (   0.7502940   0.3204038   3.0702134  )
        12        Li     tau(  12) = (   0.5002964   0.6453656   3.2428227  )
        13        Li     tau(  13) = (   0.5001769   0.1676683   3.3840466  )
        14        Li     tau(  14) = (   0.7500956   0.4722692   3.5608308  )
        15        Li     tau(  15) = (   0.7499095   0.0020088   3.7071934  )
        16        Li     tau(  16) = (   0.4998228   0.3066383   3.8838760  )
        17        Li     tau(  17) = (   0.7497150   0.6194915   4.0251313  )
        18        Li     tau(  18) = (   0.7497038   0.1539722   4.1976111  )
        19        Li     tau(  19) = (   0.4996101   0.5081094   4.3736997  )
        20        Li     tau(  20) = (   1.0003942  -0.0336858   2.8941505  )

   Crystallographic axes

     site n.     atom                  positions (cryst. coord.)
         1        Li     tau(   1) = (  0.3516211  0.4052993  0.4224361  )
         2        Li     tau(   2) = (  0.2043749  0.8163541  0.4461834  )
         3        Li     tau(   3) = (  0.0531981  0.2121020  0.4656155  )
         4        Li     tau(   4) = (  0.3994400  0.5973840  0.4899369  )
         5        Li     tau(   5) = (  0.2505377  0.0025424  0.5100742  )
         6        Li     tau(   6) = (  0.0967907  0.3878583  0.5343858  )
         7        Li     tau(   7) = (  0.4456107  0.7836311  0.5538220  )
         8        Li     tau(   8) = (  0.2983936  0.1947695  0.5775547  )
         9        Li     tau(   9) = (  0.1602884  0.6427076  0.6017794  )
        10        Li     tau(  10) = (  0.4897395 -0.0425988  0.3982064  )
        11        Li     tau(  11) = (  0.8516147  0.4052826  0.4224343  )
        12        Li     tau(  12) = (  0.7043790  0.8163305  0.4461838  )
        13        Li     tau(  13) = (  0.5531983  0.2120856  0.4656149  )
        14        Li     tau(  14) = (  0.8994403  0.5973788  0.4899389  )
        15        Li     tau(  15) = (  0.7505447  0.0025409  0.5100771  )
        16        Li     tau(  16) = (  0.5967904  0.3878704  0.5343871  )
        17        Li     tau(  17) = (  0.9456155  0.7836020  0.5538226  )
        18        Li     tau(  18) = (  0.7983941  0.1947612  0.5775542  )
        19        Li     tau(  19) = (  0.6602884  0.6427135  0.6017825  )
        20        Li     tau(  20) = (  0.9897418 -0.0426096  0.3982096  )

     number of k points=    62  Marzari-Vanderbilt smearing, width (Ry)=  0.0100
                       cart. coord. in units 2pi/alat
        k(    1) = (   0.0000000   0.0000000   0.0000000), wk =   0.0166667
        k(    2) = (   0.0000000   0.1054093   0.0000000), wk =   0.0333333
        k(    3) = (   0.0000000   0.2108186   0.0000000), wk =   0.0333333
        k(    4) = (   0.0000000   0.3162279   0.0000000), wk =   0.0333333
        k(    5) = (   0.0000000   0.4216372   0.0000000), wk =   0.0333333
        k(    6) = (   0.0000000   0.5270466   0.0000000), wk =   0.0333333
        k(    7) = (   0.0000000  -0.6324559   0.0000000), wk =   0.0166667
        k(    8) = (   0.1000000   0.0316228   0.0000000), wk =   0.0333333
        k(    9) = (   0.1000000   0.1370321   0.0000000), wk =   0.0333333
        k(   10) = (   0.1000000   0.2424414   0.0000000), wk =   0.0333333
        k(   11) = (   0.1000000   0.3478507   0.0000000), wk =   0.0333333
        k(   12) = (   0.1000000   0.4532600   0.0000000), wk =   0.0333333
        k(   13) = (   0.1000000   0.5586693   0.0000000), wk =   0.0333333
        k(   14) = (   0.1000000  -0.6008331   0.0000000), wk =   0.0333333
        k(   15) = (   0.1000000  -0.4954238   0.0000000), wk =   0.0333333
        k(   16) = (   0.1000000  -0.3900144   0.0000000), wk =   0.0333333
        k(   17) = (   0.1000000  -0.2846051   0.0000000), wk =   0.0333333
        k(   18) = (   0.1000000  -0.1791958   0.0000000), wk =   0.0333333
[...]
    -5.1882  -5.1882  -4.7483  -4.7483  -4.4912  -4.4912  -3.8216  -3.8216
    -3.2847  -3.2847  -2.4028  -2.4028  -2.1529  -2.1529  -1.7081  -1.7081
    -1.4353  -1.4353  -0.4304  -0.4304  -0.2067

     occupation numbers
     1.0000   1.0000   1.0000   1.0000   1.0000   1.0000   1.0000   1.0000
     1.0000   1.0000   1.0000   1.0000   1.0000   1.0000   1.0000   1.0000
     1.0000   1.0000   1.0000   1.0000   1.0000   1.0000   1.0000   1.0000
     1.0000   1.0000   1.0000   1.0000   1.0000   1.0000   0.1028   0.1028
     0.0000   0.0000   0.0000   0.0000   0.0000   0.0000   0.0000   0.0000
     0.0000   0.0000   0.0000   0.0000   0.0000

     the Fermi energy is    -3.9040 ev

!    total energy              =    -300.79848280 Ry
     total all-electron energy =      -300.798645 Ry
     estimated scf accuracy    <          9.3E-13 Ry

!    total charge of GC-SCF    =       1.70708237 e
     smearing contrib. (-TS)   =      -0.00032917 Ry
     internal energy E=F+TS    =    -300.79815363 Ry

     The total energy is F=E-TS. E is the sum of the following terms:
     one-electron contribution =   -3305.66318671 Ry
     hartree contribution      =    1617.25542098 Ry
     xc contribution           =     -70.95544126 Ry
     ewald contribution        =    1507.93615894 Ry
     one-center paw contrib.   =       1.76757655 Ry
      -> PAW hartree energy AE =       7.32435138 Ry
      -> PAW hartree energy PS =      -7.10119537 Ry
      -> PAW xc energy AE      =      -3.46535833 Ry
      -> PAW xc energy PS      =       3.33059982 Ry
      -> total E_H with PAW    =    1617.47857698 Ry
      -> total E_XC with PAW   =     -71.09019977 Ry
     pot.stat. contrib. (-muN) =      -0.48982801 Ry
     electrostatic embedding   =      -0.74758946 Ry
     cavitation energy         =       0.01673583 Ry
     electrolyte free energy   =      -0.01322984 Ry
     correction to one-el term =     -49.90477064 Ry

     WARNING: you are using the parabolic pbc correction;
              the potential shift above must be added to
              band and Fermi energies.

     convergence has been achieved in  14 iterations
     The dielectric solvent contribution to forces
     atom    1 type  1   force =    -0.00000086    0.00546695   -0.06346639
     atom    2 type  1   force =     0.00000002   -0.00335185   -0.04577989
     atom    3 type  1   force =    -0.00000016    0.00091495   -0.02720068
     atom    4 type  1   force =     0.00000002   -0.00017875   -0.00995044
     atom    5 type  1   force =     0.00000012    0.00017957    0.01164140
     atom    6 type  1   force =     0.00000007   -0.00090046    0.02881279
     atom    7 type  1   force =     0.00000001    0.00334806    0.04757348
     atom    8 type  1   force =     0.00000124   -0.00549480    0.06525709
     atom    9 type  1   force =     0.00000085    0.00290689    0.00972593
     atom   10 type  1   force =     0.00000028   -0.00290110   -0.00940265
     atom   11 type  1   force =    -0.00000084    0.00546600   -0.06346707
     atom   12 type  1   force =     0.00000023   -0.00335159   -0.04577955
     atom   13 type  1   force =     0.00000012    0.00091500   -0.02720004
     atom   14 type  1   force =    -0.00000015   -0.00017879   -0.00995027
     atom   15 type  1   force =    -0.00000000    0.00017953    0.01164218
     atom   16 type  1   force =    -0.00000003   -0.00090048    0.02881307
     atom   17 type  1   force =    -0.00000024    0.00334804    0.04757309
     atom   18 type  1   force =     0.00000057   -0.00549581    0.06525668
     atom   19 type  1   force =    -0.00000053    0.00290712    0.00973126
     atom   20 type  1   force =    -0.00000060   -0.00290132   -0.00939292

     Forces acting on atoms (cartesian axes, Ry/au):

     atom    1 type  1   force =     0.00000091   -0.00004704   -0.00011470
     atom    2 type  1   force =    -0.00000543    0.00013149   -0.00007752
     atom    3 type  1   force =    -0.00000061   -0.00017575   -0.00003130
     atom    4 type  1   force =     0.00000132    0.00000533    0.00020655
     atom    5 type  1   force =    -0.00000063   -0.00002146    0.00005766
     atom    6 type  1   force =     0.00000008    0.00017049    0.00019206
     atom    7 type  1   force =     0.00000443   -0.00014297    0.00011650
     atom    8 type  1   force =    -0.00000135    0.00004774   -0.00001461
     atom    9 type  1   force =     0.00000056    0.00015878   -0.00019380
     atom   10 type  1   force =    -0.00000018   -0.00012457   -0.00013952
     atom   11 type  1   force =     0.00000149   -0.00004857   -0.00011555
     atom   12 type  1   force =    -0.00000357    0.00013138   -0.00007740
     atom   13 type  1   force =     0.00000125   -0.00017690   -0.00003189
     atom   14 type  1   force =     0.00000045    0.00000544    0.00020556
     atom   15 type  1   force =    -0.00000135   -0.00002188    0.00005495
     atom   16 type  1   force =    -0.00000082    0.00017119    0.00019144
     atom   17 type  1   force =     0.00000438   -0.00014293    0.00011699
     atom   18 type  1   force =    -0.00000109    0.00004573   -0.00001529
     atom   19 type  1   force =     0.00000010    0.00015870   -0.00019331
     atom   20 type  1   force =     0.00000007   -0.00012420   -0.00013684
     The non-local contrib.  to forces
     atom    1 type  1   force =     0.00003316    0.01220369   -0.05427522
     atom    2 type  1   force =     0.00002405    0.00039892    0.00174250
     atom    3 type  1   force =     0.00002682    0.00064388   -0.00646514
     atom    4 type  1   force =     0.00003613   -0.00148020   -0.00385364
     atom    5 type  1   force =    -0.00003700    0.00154125    0.00471879
     atom    6 type  1   force =    -0.00002776   -0.00085706    0.00650933
     atom    7 type  1   force =    -0.00002583   -0.00027944   -0.00167308
     atom    8 type  1   force =    -0.00003251   -0.01220685    0.05362153
     atom    9 type  1   force =    -0.00000470    0.00759070    0.09480650
     atom   10 type  1   force =     0.00000915   -0.00770304   -0.09550226
     atom   11 type  1   force =     0.00003539    0.01220241   -0.05427437
     atom   12 type  1   force =     0.00002777    0.00040091    0.00174469
     atom   13 type  1   force =     0.00003037    0.00064667   -0.00646175
     atom   14 type  1   force =     0.00003418   -0.00148211   -0.00385307
     atom   15 type  1   force =    -0.00003806    0.00153931    0.00471781
     atom   16 type  1   force =    -0.00002939   -0.00085710    0.00650811
     atom   17 type  1   force =    -0.00002679   -0.00027845   -0.00167308
     atom   18 type  1   force =    -0.00003266   -0.01220979    0.05362072
     atom   19 type  1   force =    -0.00000925    0.00759212    0.09480586
     atom   20 type  1   force =     0.00000613   -0.00770281   -0.09549967
     The ionic contribution  to forces
     atom    1 type  1   force =    -0.00003003    0.10235915   -9.08561631
     atom    2 type  1   force =    -0.00014321   -0.10000845   -6.64546614
     atom    3 type  1   force =    -0.00015379    0.02291731   -3.87840577
     atom    4 type  1   force =    -0.00001666    0.00254161   -1.45028666
     atom    5 type  1   force =     0.00006061   -0.00298907    1.46203656
     atom    6 type  1   force =     0.00013240   -0.02193655    3.86964161
     atom    7 type  1   force =     0.00012182    0.09969681    6.66176122
     atom    8 type  1   force =     0.00001921   -0.10289221    9.07108586
     atom    9 type  1   force =     0.00004454    0.03707293   11.25509366
     atom   10 type  1   force =    -0.00001498   -0.03673383  -11.25995040
     atom   11 type  1   force =    -0.00000687    0.10233183   -9.08551975
     atom   12 type  1   force =    -0.00008391   -0.09999022   -6.64539964
     atom   13 type  1   force =    -0.00008647    0.02292154   -3.87830874
     atom   14 type  1   force =    -0.00006841    0.00253157   -1.45027943
     atom   15 type  1   force =     0.00003330   -0.00300296    1.46211182
     atom   16 type  1   force =     0.00011264   -0.02192690    3.86966014
     atom   17 type  1   force =     0.00010016    0.09970402    6.66175307
     atom   18 type  1   force =     0.00000625   -0.10294136    9.07109038
     atom   19 type  1   force =     0.00000727    0.03707710   11.25502943
     atom   20 type  1   force =    -0.00003388   -0.03673232  -11.26003090
     The local contribution  to forces
     atom    1 type  1   force =    -0.00000135   -0.12007658    9.20324387
     atom    2 type  1   force =     0.00011373    0.10309251    6.68943309
     atom    3 type  1   force =     0.00012651   -0.02465181    3.91203660
     atom    4 type  1   force =    -0.00001815   -0.00087772    1.46429481
     atom    5 type  1   force =    -0.00002434    0.00124687   -1.47834070
     atom    6 type  1   force =    -0.00010466    0.02386413   -3.90477204
     atom    7 type  1   force =    -0.00009156   -0.10290837   -6.70755714
     atom    8 type  1   force =     0.00001078    0.12064099   -9.18998370
     atom    9 type  1   force =    -0.00004008   -0.04741023  -11.35982474
     atom   10 type  1   force =     0.00000541    0.04721231   11.36471634
     atom   11 type  1   force =    -0.00002621   -0.12004856    9.20314624
     atom   12 type  1   force =     0.00005236    0.10307191    6.68936418
     atom   13 type  1   force =     0.00005723   -0.02466002    3.91193494
     atom   14 type  1   force =     0.00003484   -0.00086561    1.46428584
     atom   15 type  1   force =     0.00000342    0.00126233   -1.47841846
     atom   16 type  1   force =    -0.00008406    0.02385524   -3.90479026
     atom   17 type  1   force =    -0.00006874   -0.10291652   -6.70754813
     atom   18 type  1   force =     0.00002481    0.12069208   -9.18998769
     atom   19 type  1   force =     0.00000265   -0.04741612  -11.35976473
     atom   20 type  1   force =     0.00002848    0.04721118   11.36478721
     The core correction contribution to forces
     atom    1 type  1   force =     0.00000000    0.00000000    0.00000000
     atom    2 type  1   force =     0.00000000    0.00000000    0.00000000
     atom    3 type  1   force =     0.00000000    0.00000000    0.00000000
     atom    4 type  1   force =     0.00000000    0.00000000    0.00000000
     atom    5 type  1   force =     0.00000000    0.00000000    0.00000000
     atom    6 type  1   force =     0.00000000    0.00000000    0.00000000
     atom    7 type  1   force =     0.00000000    0.00000000    0.00000000
     atom    8 type  1   force =     0.00000000    0.00000000    0.00000000
     atom    9 type  1   force =     0.00000000    0.00000000    0.00000000
     atom   10 type  1   force =     0.00000000    0.00000000    0.00000000
     atom   11 type  1   force =     0.00000000    0.00000000    0.00000000
     atom   12 type  1   force =     0.00000000    0.00000000    0.00000000
     atom   13 type  1   force =     0.00000000    0.00000000    0.00000000
     atom   14 type  1   force =     0.00000000    0.00000000    0.00000000
     atom   15 type  1   force =     0.00000000    0.00000000    0.00000000
     atom   16 type  1   force =     0.00000000    0.00000000    0.00000000
     atom   17 type  1   force =     0.00000000    0.00000000    0.00000000
     atom   18 type  1   force =     0.00000000    0.00000000    0.00000000
     atom   19 type  1   force =     0.00000000    0.00000000    0.00000000
     atom   20 type  1   force =     0.00000000    0.00000000    0.00000000
     The Hubbard contrib.    to forces
     atom    1 type  1   force =     0.00000000    0.00000000    0.00000000
     atom    2 type  1   force =     0.00000000    0.00000000    0.00000000
     atom    3 type  1   force =     0.00000000    0.00000000    0.00000000
     atom    4 type  1   force =     0.00000000    0.00000000    0.00000000
     atom    5 type  1   force =     0.00000000    0.00000000    0.00000000
     atom    6 type  1   force =     0.00000000    0.00000000    0.00000000
     atom    7 type  1   force =     0.00000000    0.00000000    0.00000000
     atom    8 type  1   force =     0.00000000    0.00000000    0.00000000
     atom    9 type  1   force =     0.00000000    0.00000000    0.00000000
     atom   10 type  1   force =     0.00000000    0.00000000    0.00000000
     atom   11 type  1   force =     0.00000000    0.00000000    0.00000000
     atom   12 type  1   force =     0.00000000    0.00000000    0.00000000
     atom   13 type  1   force =     0.00000000    0.00000000    0.00000000
     atom   14 type  1   force =     0.00000000    0.00000000    0.00000000
     atom   15 type  1   force =     0.00000000    0.00000000    0.00000000
     atom   16 type  1   force =     0.00000000    0.00000000    0.00000000
     atom   17 type  1   force =     0.00000000    0.00000000    0.00000000
     atom   18 type  1   force =     0.00000000    0.00000000    0.00000000
     atom   19 type  1   force =     0.00000000    0.00000000    0.00000000
     atom   20 type  1   force =     0.00000000    0.00000000    0.00000000
     The SCF correction term to forces
     atom    1 type  1   force =    -0.00000002   -0.00000040   -0.00000283
     atom    2 type  1   force =    -0.00000003    0.00000021   -0.00000925
     atom    3 type  1   force =    -0.00000000   -0.00000025    0.00000151
     atom    4 type  1   force =    -0.00000003    0.00000022    0.00000030
     atom    5 type  1   force =    -0.00000001   -0.00000024   -0.00000058
     atom    6 type  1   force =     0.00000001    0.00000026   -0.00000180
     atom    7 type  1   force =    -0.00000002   -0.00000018    0.00000983
     atom    8 type  1   force =    -0.00000008    0.00000044    0.00000243
     atom    9 type  1   force =    -0.00000006   -0.00000168    0.00000268
     atom   10 type  1   force =    -0.00000005    0.00000093   -0.00000273
     atom   11 type  1   force =     0.00000000   -0.00000041   -0.00000279
     atom   12 type  1   force =    -0.00000003    0.00000021   -0.00000925
     atom   13 type  1   force =    -0.00000000   -0.00000025    0.00000151
     atom   14 type  1   force =    -0.00000003    0.00000022    0.00000030
     atom   15 type  1   force =    -0.00000001   -0.00000024   -0.00000058
     atom   16 type  1   force =     0.00000001    0.00000027   -0.00000179
     atom   17 type  1   force =    -0.00000002   -0.00000018    0.00000985
     atom   18 type  1   force =    -0.00000007    0.00000045    0.00000243
     atom   19 type  1   force =    -0.00000006   -0.00000168    0.00000269
     atom   20 type  1   force =    -0.00000006    0.00000091   -0.00000273

     Total force =     0.000796     Total SCF correction =     0.000021
     Energy error            =      1.9E-06 Ry
     Gradient error          =      2.1E-04 Ry/Bohr

     bfgs converged in  32 scf cycles and  31 bfgs steps
     (criteria: energy <  1.0E-05 Ry, force <  3.9E-04 Ry/Bohr)

     End of BFGS Geometry Optimization

     Final energy             =    -300.7984828005 Ry

     File ./Li/Lithium.bfgs deleted, as requested
Begin final coordinates

ATOMIC_POSITIONS (angstrom)
Li               1.7189887627        2.1301049780       21.1761860807
Li               0.0014077452        4.4927566419       22.2182355712
Li               0.0010897701        1.1179153528       23.3551970765
Li               1.7179303492        3.2890875764       24.3654177325
Li               1.7171775932       -0.0401269470       25.5529499382
Li              -0.0010654961        2.1345456788       26.5596192687
Li               1.7161734688        4.1950669156       27.7193896585
Li               1.7161919139        1.1382025880       28.7580949170
Li              -0.0016208827        3.5269366580       30.2377753020
Li               3.4367672507       -0.2587183768       19.7211238741
Li               5.1541359377        2.1301591824       21.1762333473
Li               3.4365261058        4.4927740973       22.2182567441
Li               3.4362012538        1.1179628021       23.3552295072
Li               5.1531271057        3.2890637539       24.3654325232
Li               5.1523583633       -0.0401339890       25.5529980735
Li               3.4340884240        2.1345376701       26.5596323850
Li               5.1513592327        4.1950658999       27.7193875771
Li               5.1513598980        1.1382608680       28.7581010384
Li               3.4335507456        3.5269566393       30.2377022485
Li               6.8719110617       -0.2587402149       19.7209920209
End final coordinates

     Writing all to output data dir ./Li/Lithium.save/ :
     XML data file

     General routines

     Parallel routines

     PAW routines

     Environ routines

   This run was terminated on:   4:39:35   5Jan2025

   JOB DONE.