     Program PWSCF v.7.4 starts on 17Jan2025 at  1: 8:48

     Reading input from espresso.pwi
Warning: card &CELL ignored
Warning: card    PRESS_CONV_THR   = 0.1 ignored
Warning: card    CELL_DOFREE      = 'ALL' ignored
Warning: card / ignored
Warning: card &FCP ignored
Warning: card / ignored
Warning: card &RISM ignored
Warning: card / ignored

     Current dimensions of program PWSCF are:
     Max number of different atomic species (ntypx) = 10
     Max number of k-points (npk) =  40000
     Max angular momentum in pseudopotentials (lmaxx) =  4

     IMPORTANT: XC functional enforced from input :
     Exchange-correlation= PBE
                           (   1   4   3   4   0   0   0)
     Any further DFT definition will be discarded
     Please, verify this is what you really want

     Reading input from environ.in:
     * using ionic solvent mode
     * setting boundary derivatives method to SSCS default
     * setting electrolyte-boundary derivatives method to SSCS default

Environ Warning (1001): card EOF ignored

     Found identity + ( -0.5000 -0.0000  0.0000) symmetry
     This is a supercell, fractional translations are disabled

     K-points division:     npool     =       2
     R & G space division:  proc/nbgrp/npool/nimage =     256
     Subspace diagonalization in iterative solution of the eigenvalue problem:
     a serial algorithm will be used

     Using Slab Decomposition

     bravais-lattice index     =           12
     lattice parameter (alat)  =      11.2436  a.u.
     unit-cell volume          =   15431.5264 (a.u.)^3
     number of atoms/cell      =           28
     number of atomic types    =            1
     number of electrons       =        84.00
     number of Kohn-Sham states=           63
     kinetic-energy cutoff     =      80.0000  Ry
     charge density cutoff     =     800.0000  Ry
     scf convergence threshold =      1.0E-16
     mixing beta               =       0.2000
     number of iterations used =            8  local-TF  mixing
     Exchange-correlation= PBE
                           (   1   4   3   4   0   0   0)

                                  Environ Setup Summary

          O. Andreussi, I. Dabo and N. Marzari, J. Chem. Phys. 136, 064102 (2012)
          F. Nattino, M. Truscott, N. Marzari, and O. Andreussi, J. Chem. Phys. 150, 041722 (2019)

     in publications or presentations arising from this work.

     Parameters

     compensation onset threshold      =               0.1000E+00
     static permittivity               =                    89.90
     surface tension in input (dyn/cm) =                    37.30
     surface tension in internal units =               0.4792E-04

     Solvent Boundary

     solvent mode                      =                    ionic
     derivatives method                =                   lowmem
     electrolyte derivatives method    =                   lowmem
     numerical core for derivatives    =                      fft
     switching function adopted        =                     SCCS
     density limit for vacuum region   =               0.5000E-02
     density limit for bulk solvent    =               0.1000E-03
     soft-sphere radius mode           =                    bondi
     soft-sphere softness              =                     0.50
     alpha                             =                     1.32

     Electrostatic Setup

     electrostatic problem to solve    =                    modpb
     numerical solver adopted          =                   newton
     type of auxiliary density adopted =                     none
     numerical core for poisson        =                      fft
     adopting a nested solver scheme
     inner solver                      =                       cg
     inner core                        =                      fft
     type of pbc corrections           =                parabolic
     numerical core for corrections    =                      1da

     >>>>> Grand-Canonical SCF is activated <<<<<
     Initial Total Charge  =     0.000000 e
     Target Fermi Energy   =    -4.904000 eV
     Thr. of Fermi Energy  =     0.001000 eV
     Wave-shift of Kerker  =     0.400000 bohr^-1
     Wave-shift of Hartree =     1.500000 bohr^-1
     Mixing Rate of Fermi  =     0.050000

     celldm(1)=  11.243615  celldm(2)=   1.258306  celldm(3)=   8.704589
     celldm(4)=  -0.132454  celldm(5)=   0.000000  celldm(6)=   0.000000

     crystal axes: (cart. coord. in units of alat)
               a(1) = (   1.000000   0.000000   0.000000 )
               a(2) = (  -0.166667   1.247219   0.000000 )
               a(3) = (   0.000000   0.000000   8.704589 )

     reciprocal axes: (cart. coord. in units 2 pi/alat)
               b(1) = (  1.000000  0.133631 -0.000000 )
               b(2) = (  0.000000  0.801784  0.000000 )
               b(3) = (  0.000000 -0.000000  0.114882 )

     PseudoPot. # 1 for Li read from file:
     /work/e89/e89/ba3g18/Repos/Pseudopotentials/Pslibrary/Li.pbe-sl-kjpaw_psl.1.0.0.UPF
     MD5 check sum: 3f4d2cafebb47c6c3aa8ed472e6f074d
     Pseudo is Projector augmented-wave, Zval =  3.0
     Generated using 'atomic' code by A. Dal Corso  v.7.4
     Shape of augmentation charge: PSQ
     Using radial grid of 1017 points,  4 beta functions with:
                l(1) =   0
                l(2) =   0
                l(3) =   1
                l(4) =   1
     Q(r) pseudized with 0 coefficients

     atomic species   valence    mass     pseudopotential
     Li                3.00     6.94000     Li( 1.00)

     No symmetry found

                                    s                        frac. trans.

      isym =  1     identity

 cryst.   s( 1) = (     1          0          0      )
                  (     0          1          0      )
                  (     0          0          1      )

 cart.    s( 1) = (  1.0000000  0.0000000  0.0000000 )
                  (  0.0000000  1.0000000  0.0000000 )
                  (  0.0000000  0.0000000  1.0000000 )

     point group C_1 (1)
     there are  1 classes
     the character table:

       E
A      1.00

     the symmetry operations in each class and the name of the first element:

     E        1
          identity

   Cartesian axes

     site n.     atom                  positions (alat units)
         1        Li     tau(   1) = (   0.0603716  -0.0440479   5.4194928  )
         2        Li     tau(   2) = (  -0.0603729   0.8458308   3.2850959  )
         3        Li     tau(   3) = (   0.1263349   0.3638074   3.4799312  )
         4        Li     tau(   4) = (   0.1554018   1.1495786   3.6783786  )
         5        Li     tau(   5) = (   0.3387627   0.7082452   3.7681615  )
         6        Li     tau(   6) = (   0.0000991   0.2718188   3.9628373  )
         7        Li     tau(   7) = (  -0.0286755   1.0604431   4.1174734  )
         8        Li     tau(   8) = (   0.1839059   0.6304680   4.2660019  )
         9        Li     tau(   9) = (   0.3160942   0.1713156   4.4385876  )
        10        Li     tau(  10) = (   0.3620081   0.9885597   4.5871159  )
        11        Li     tau(  11) = (  -0.0001001   0.5299650   4.7417524  )
        12        Li     tau(  12) = (   0.1612387   0.0935389   4.9364283  )
        13        Li     tau(  13) = (   0.1779308   0.8994243   5.0262106  )
        14        Li     tau(  14) = (   0.3736679   0.4379769   5.2246590  )
        15        Li     tau(  15) = (   0.5603718  -0.0440483   5.4194939  )
        16        Li     tau(  16) = (   0.4396262   0.8458307   3.2850964  )
        17        Li     tau(  17) = (   0.6263354   0.3638075   3.4799310  )
        18        Li     tau(  18) = (   0.6554019   1.1495786   3.6783785  )
        19        Li     tau(  19) = (   0.8387624   0.7082452   3.7681611  )
        20        Li     tau(  20) = (   0.5000992   0.2718187   3.9628372  )
        21        Li     tau(  21) = (   0.4713245   1.0604432   4.1174734  )
        22        Li     tau(  22) = (   0.6839058   0.6304680   4.2660017  )
        23        Li     tau(  23) = (   0.8160942   0.1713156   4.4385878  )
        24        Li     tau(  24) = (   0.8620081   0.9885596   4.5871158  )
        25        Li     tau(  25) = (   0.4998999   0.5299650   4.7417523  )
        26        Li     tau(  26) = (   0.6612386   0.0935388   4.9364287  )
        27        Li     tau(  27) = (   0.6779308   0.8994242   5.0262105  )
        28        Li     tau(  28) = (   0.8736680   0.4379772   5.2246592  )

   Crystallographic axes

     site n.     atom                  positions (cryst. coord.)
         1        Li     tau(   1) = (  0.0544855 -0.0353169  0.6226018  )
         2        Li     tau(   2) = (  0.0526563  0.6781735  0.3773982  )
         3        Li     tau(   3) = (  0.1749508  0.2916949  0.3997812  )
         4        Li     tau(   4) = (  0.3090211  0.9217135  0.4225792  )
         5        Li     tau(   5) = (  0.4334061  0.5678595  0.4328937  )
         6        Li     tau(   6) = (  0.0364225  0.2179399  0.4552584  )
         7        Li     tau(   7) = (  0.1130324  0.8502461  0.4730233  )
         8        Li     tau(   8) = (  0.2681559  0.5054991  0.4900865  )
         9        Li     tau(   9) = (  0.3389872  0.1373581  0.5099135  )
        10        Li     tau(  10) = (  0.4941102  0.7926112  0.5269767  )
        11        Li     tau(  11) = (  0.0707196  0.4249174  0.5447417  )
        12        Li     tau(  12) = (  0.1737384  0.0749980  0.5671064  )
        13        Li     tau(  13) = (  0.2981217  0.7211439  0.5774208  )
        14        Li     tau(  14) = (  0.4321951  0.3511628  0.6002189  )
        15        Li     tau(  15) = (  0.5544855 -0.0353172  0.6226019  )
        16        Li     tau(  16) = (  0.5526554  0.6781734  0.3773982  )
        17        Li     tau(  17) = (  0.6749513  0.2916949  0.3997812  )
        18        Li     tau(  18) = (  0.8090211  0.9217135  0.4225792  )
        19        Li     tau(  19) = (  0.9334058  0.5678596  0.4328936  )
        20        Li     tau(  20) = (  0.5364225  0.2179399  0.4552584  )
        21        Li     tau(  21) = (  0.6130325  0.8502462  0.4730233  )
        22        Li     tau(  22) = (  0.7681558  0.5054990  0.4900865  )
        23        Li     tau(  23) = (  0.8389873  0.1373581  0.5099135  )
        24        Li     tau(  24) = (  0.9941102  0.7926111  0.5269767  )
        25        Li     tau(  25) = (  0.5707196  0.4249173  0.5447417  )
        26        Li     tau(  26) = (  0.6737383  0.0749979  0.5671065  )
        27        Li     tau(  27) = (  0.7981216  0.7211437  0.5774208  )
        28        Li     tau(  28) = (  0.9321953  0.3511630  0.6002189  )

     number of k points=    50  Marzari-Vanderbilt smearing, width (Ry)=  0.0100
                       cart. coord. in units 2pi/alat
        k(    1) = (   0.0000000   0.0000000   0.0000000), wk =   0.0202020
        k(    2) = (   0.0000000   0.0890871   0.0000000), wk =   0.0404040
        k(    3) = (   0.0000000   0.1781742   0.0000000), wk =   0.0404040
        k(    4) = (   0.0000000   0.2672613   0.0000000), wk =   0.0404040
        k(    5) = (   0.0000000   0.3563484   0.0000000), wk =   0.0404040
[...]
     atom   12 type  1   force =     0.00004461   -0.00086287    0.06802874
     atom   13 type  1   force =    -0.00016396   -0.01577835    0.10288180
     atom   14 type  1   force =    -0.00007963    0.03261415    0.08643227
     atom   15 type  1   force =     0.00009479   -0.02140954    0.00303056
     atom   16 type  1   force =    -0.00009473    0.02140961   -0.00303055
     atom   17 type  1   force =     0.00007960   -0.03261433   -0.08643172
     atom   18 type  1   force =     0.00016396    0.01577841   -0.10288152
     atom   19 type  1   force =    -0.00004461    0.00086294   -0.06802824
     atom   20 type  1   force =    -0.00002042   -0.00413642   -0.05564816
     atom   21 type  1   force =     0.00002817    0.00189598   -0.03296398
     atom   22 type  1   force =    -0.00002460   -0.00023731   -0.01052647
     atom   23 type  1   force =     0.00002460    0.00023731    0.01052692
     atom   24 type  1   force =    -0.00002817   -0.00189596    0.03296437
     atom   25 type  1   force =     0.00002042    0.00413638    0.05564857
     atom   26 type  1   force =     0.00004460   -0.00086287    0.06802877
     atom   27 type  1   force =    -0.00016396   -0.01577833    0.10288181
     atom   28 type  1   force =    -0.00007964    0.03261415    0.08643222

     Forces acting on atoms (cartesian axes, Ry/au):

     atom    1 type  1   force =     0.00022041    0.00017154    0.00011509
     atom    2 type  1   force =    -0.00022060   -0.00017157   -0.00011512
     atom    3 type  1   force =     0.00007643    0.00005601   -0.00010172
     atom    4 type  1   force =    -0.00002560   -0.00006114   -0.00012929
     atom    5 type  1   force =     0.00027636   -0.00005146    0.00005900
     atom    6 type  1   force =    -0.00018126   -0.00002381   -0.00016359
     atom    7 type  1   force =     0.00003893    0.00012702    0.00013999
     atom    8 type  1   force =     0.00007505   -0.00002779   -0.00000451
     atom    9 type  1   force =    -0.00007511    0.00002779    0.00000451
     atom   10 type  1   force =    -0.00003899   -0.00012698   -0.00013998
     atom   11 type  1   force =     0.00018134    0.00002380    0.00016357
     atom   12 type  1   force =    -0.00027640    0.00005146   -0.00005906
     atom   13 type  1   force =     0.00002555    0.00006107    0.00012931
     atom   14 type  1   force =    -0.00007627   -0.00005596    0.00010171
     atom   15 type  1   force =     0.00022035    0.00017153    0.00011513
     atom   16 type  1   force =    -0.00022003   -0.00017158   -0.00011508
     atom   17 type  1   force =     0.00007613    0.00005596   -0.00010176
     atom   18 type  1   force =    -0.00002563   -0.00006108   -0.00012929
     atom   19 type  1   force =     0.00027656   -0.00005145    0.00005910
     atom   20 type  1   force =    -0.00018126   -0.00002380   -0.00016358
     atom   21 type  1   force =     0.00003894    0.00012703    0.00014001
     atom   22 type  1   force =     0.00007506   -0.00002777   -0.00000452
     atom   23 type  1   force =    -0.00007513    0.00002779    0.00000451
     atom   24 type  1   force =    -0.00003900   -0.00012699   -0.00013996
     atom   25 type  1   force =     0.00018131    0.00002379    0.00016355
     atom   26 type  1   force =    -0.00027632    0.00005144   -0.00005902
     atom   27 type  1   force =     0.00002554    0.00006109    0.00012930
     atom   28 type  1   force =    -0.00007635   -0.00005595    0.00010170
     The non-local contrib.  to forces
     atom    1 type  1   force =     0.00009432   -0.02075178    0.09043186
     atom    2 type  1   force =    -0.00009430    0.02075196   -0.09043186
     atom    3 type  1   force =     0.00024496   -0.02928707   -0.07712747
     atom    4 type  1   force =     0.00070968    0.01008719   -0.03503486
     atom    5 type  1   force =    -0.00093478   -0.00222248    0.00668416
     atom    6 type  1   force =     0.00008043    0.00009843    0.00555670
     atom    7 type  1   force =    -0.00023618   -0.00029297    0.00106445
     atom    8 type  1   force =     0.00072375   -0.00067580   -0.00086534
     atom    9 type  1   force =    -0.00072366    0.00067576    0.00086544
     atom   10 type  1   force =     0.00023609    0.00029291   -0.00106453
     atom   11 type  1   force =    -0.00008039   -0.00009851   -0.00555651
     atom   12 type  1   force =     0.00093482    0.00222229   -0.00668416
     atom   13 type  1   force =    -0.00070970   -0.01008699    0.03503440
     atom   14 type  1   force =    -0.00024455    0.02928667    0.07712765
     atom   15 type  1   force =     0.00009429   -0.02075174    0.09043166
     atom   16 type  1   force =    -0.00009416    0.02075190   -0.09043191
     atom   17 type  1   force =     0.00024476   -0.02928706   -0.07712757
     atom   18 type  1   force =     0.00070970    0.01008716   -0.03503494
     atom   19 type  1   force =    -0.00093461   -0.00222242    0.00668424
     atom   20 type  1   force =     0.00008043    0.00009840    0.00555664
     atom   21 type  1   force =    -0.00023615   -0.00029296    0.00106446
     atom   22 type  1   force =     0.00072378   -0.00067580   -0.00086533
     atom   23 type  1   force =    -0.00072368    0.00067576    0.00086548
     atom   24 type  1   force =     0.00023607    0.00029292   -0.00106448
     atom   25 type  1   force =    -0.00008042   -0.00009849   -0.00555656
     atom   26 type  1   force =     0.00093483    0.00222230   -0.00668417
     atom   27 type  1   force =    -0.00070981   -0.01008696    0.03503438
     atom   28 type  1   force =    -0.00024465    0.02928667    0.07712770
     The ionic contribution  to forces
     atom    1 type  1   force =     0.00077428   -0.20408619   13.09689390
     atom    2 type  1   force =    -0.00077726    0.20408942  -13.09690033
     atom    3 type  1   force =     0.00197374   -0.37748709  -11.68630624
     atom    4 type  1   force =    -0.00211918    0.22426809   -9.36046423
     atom    5 type  1   force =     0.00062081   -0.05185863   -7.77025413
     atom    6 type  1   force =    -0.00164084    0.01257937   -5.26376627
     atom    7 type  1   force =     0.00409328    0.02407229   -3.16041196
     atom    8 type  1   force =    -0.00224795   -0.07152216   -1.15625961
     atom    9 type  1   force =     0.00224731    0.07152244    1.15626120
     atom   10 type  1   force =    -0.00409256   -0.02407158    3.16040995
     atom   11 type  1   force =     0.00164172   -0.01258098    5.26376853
     atom   12 type  1   force =    -0.00062231    0.05186044    7.77025921
     atom   13 type  1   force =     0.00211991   -0.22426742    9.36045697
     atom   14 type  1   force =    -0.00197206    0.37748192   11.68631157
     atom   15 type  1   force =     0.00077354   -0.20408648   13.09689905
     atom   16 type  1   force =    -0.00076984    0.20408882  -13.09689770
     atom   17 type  1   force =     0.00196935   -0.37748722  -11.68630844
     atom   18 type  1   force =    -0.00211925    0.22426789   -9.36046509
     atom   19 type  1   force =     0.00062329   -0.05185762   -7.77025956
     atom   20 type  1   force =    -0.00164147    0.01257906   -5.26376815
     atom   21 type  1   force =     0.00409319    0.02407269   -3.16041099
     atom   22 type  1   force =    -0.00224751   -0.07152196   -1.15626155
     atom   23 type  1   force =     0.00224718    0.07152227    1.15626369
     atom   24 type  1   force =    -0.00409297   -0.02407157    3.16040883
     atom   25 type  1   force =     0.00164141   -0.01258094    5.26376695
     atom   26 type  1   force =    -0.00062157    0.05186027    7.77026520
     atom   27 type  1   force =     0.00211921   -0.22426690    9.36045562
     atom   28 type  1   force =    -0.00197344    0.37748178   11.68631357
     The local contribution  to forces
     atom    1 type  1   force =    -0.00074296    0.24641906  -13.19024193
     atom    2 type  1   force =     0.00074586   -0.24642259   13.19024728
     atom    3 type  1   force =    -0.00222190    0.43944450   11.84976373
     atom    4 type  1   force =     0.00121995   -0.25019486    9.49825131
     atom    5 type  1   force =     0.00063497    0.05316670    7.83165717
     atom    6 type  1   force =     0.00139960   -0.00856521    5.31369412
     atom    7 type  1   force =    -0.00384630   -0.02554829    3.19245148
     atom    8 type  1   force =     0.00162389    0.07240747    1.16764688
     atom    9 type  1   force =    -0.00162333   -0.07240773   -1.16764904
     atom   10 type  1   force =     0.00384567    0.02554763   -3.19244978
     atom   11 type  1   force =    -0.00140037    0.00856690   -5.31369704
     atom   12 type  1   force =    -0.00063348   -0.05316842   -7.83166285
     atom   13 type  1   force =    -0.00122066    0.25019382   -9.49824387
     atom   14 type  1   force =     0.00222001   -0.43943871  -11.84976976
     atom   15 type  1   force =    -0.00074225    0.24641930  -13.19024613
     atom   16 type  1   force =     0.00073874   -0.24642194   13.19024506
     atom   17 type  1   force =    -0.00221756    0.43944457   11.84976597
     atom   18 type  1   force =     0.00121999   -0.25019455    9.49825226
     atom   19 type  1   force =     0.00063252    0.05316563    7.83166265
     atom   20 type  1   force =     0.00140023   -0.00856486    5.31369609
     atom   21 type  1   force =    -0.00384624   -0.02554869    3.19245052
     atom   22 type  1   force =     0.00162342    0.07240729    1.16764885
     atom   23 type  1   force =    -0.00162320   -0.07240757   -1.16765158
     atom   24 type  1   force =     0.00384610    0.02554760   -3.19244868
     atom   25 type  1   force =    -0.00140008    0.00856683   -5.31369542
     atom   26 type  1   force =    -0.00063416   -0.05316828   -7.83166882
     atom   27 type  1   force =    -0.00121987    0.25019326   -9.49824252
     atom   28 type  1   force =     0.00222142   -0.43943857  -11.84977178
     The core correction contribution to forces
     atom    1 type  1   force =     0.00000000    0.00000000    0.00000000
     atom    2 type  1   force =     0.00000000    0.00000000    0.00000000
     atom    3 type  1   force =     0.00000000    0.00000000    0.00000000
     atom    4 type  1   force =     0.00000000    0.00000000    0.00000000
     atom    5 type  1   force =     0.00000000    0.00000000    0.00000000
     atom    6 type  1   force =     0.00000000    0.00000000    0.00000000
     atom    7 type  1   force =     0.00000000    0.00000000    0.00000000
     atom    8 type  1   force =     0.00000000    0.00000000    0.00000000
     atom    9 type  1   force =     0.00000000    0.00000000    0.00000000
     atom   10 type  1   force =     0.00000000    0.00000000    0.00000000
     atom   11 type  1   force =     0.00000000    0.00000000    0.00000000
     atom   12 type  1   force =     0.00000000    0.00000000    0.00000000
     atom   13 type  1   force =     0.00000000    0.00000000    0.00000000
     atom   14 type  1   force =     0.00000000    0.00000000    0.00000000
     atom   15 type  1   force =     0.00000000    0.00000000    0.00000000
     atom   16 type  1   force =     0.00000000    0.00000000    0.00000000
     atom   17 type  1   force =     0.00000000    0.00000000    0.00000000
     atom   18 type  1   force =     0.00000000    0.00000000    0.00000000
     atom   19 type  1   force =     0.00000000    0.00000000    0.00000000
     atom   20 type  1   force =     0.00000000    0.00000000    0.00000000
     atom   21 type  1   force =     0.00000000    0.00000000    0.00000000
     atom   22 type  1   force =     0.00000000    0.00000000    0.00000000
     atom   23 type  1   force =     0.00000000    0.00000000    0.00000000
     atom   24 type  1   force =     0.00000000    0.00000000    0.00000000
     atom   25 type  1   force =     0.00000000    0.00000000    0.00000000
     atom   26 type  1   force =     0.00000000    0.00000000    0.00000000
     atom   27 type  1   force =     0.00000000    0.00000000    0.00000000
     atom   28 type  1   force =     0.00000000    0.00000000    0.00000000
     The Hubbard contrib.    to forces
     atom    1 type  1   force =     0.00000000    0.00000000    0.00000000
     atom    2 type  1   force =     0.00000000    0.00000000    0.00000000
     atom    3 type  1   force =     0.00000000    0.00000000    0.00000000
     atom    4 type  1   force =     0.00000000    0.00000000    0.00000000
     atom    5 type  1   force =     0.00000000    0.00000000    0.00000000
     atom    6 type  1   force =     0.00000000    0.00000000    0.00000000
     atom    7 type  1   force =     0.00000000    0.00000000    0.00000000
     atom    8 type  1   force =     0.00000000    0.00000000    0.00000000
     atom    9 type  1   force =     0.00000000    0.00000000    0.00000000
     atom   10 type  1   force =     0.00000000    0.00000000    0.00000000
     atom   11 type  1   force =     0.00000000    0.00000000    0.00000000
     atom   12 type  1   force =     0.00000000    0.00000000    0.00000000
     atom   13 type  1   force =     0.00000000    0.00000000    0.00000000
     atom   14 type  1   force =     0.00000000    0.00000000    0.00000000
     atom   15 type  1   force =     0.00000000    0.00000000    0.00000000
     atom   16 type  1   force =     0.00000000    0.00000000    0.00000000
     atom   17 type  1   force =     0.00000000    0.00000000    0.00000000
     atom   18 type  1   force =     0.00000000    0.00000000    0.00000000
     atom   19 type  1   force =     0.00000000    0.00000000    0.00000000
     atom   20 type  1   force =     0.00000000    0.00000000    0.00000000
     atom   21 type  1   force =     0.00000000    0.00000000    0.00000000
     atom   22 type  1   force =     0.00000000    0.00000000    0.00000000
     atom   23 type  1   force =     0.00000000    0.00000000    0.00000000
     atom   24 type  1   force =     0.00000000    0.00000000    0.00000000
     atom   25 type  1   force =     0.00000000    0.00000000    0.00000000
     atom   26 type  1   force =     0.00000000    0.00000000    0.00000000
     atom   27 type  1   force =     0.00000000    0.00000000    0.00000000
     atom   28 type  1   force =     0.00000000    0.00000000    0.00000000
     The SCF correction term to forces
     atom    1 type  1   force =    -0.00000001   -0.00000001   -0.00000002
     atom    2 type  1   force =    -0.00000001    0.00000000    0.00000002
     atom    3 type  1   force =    -0.00000000   -0.00000000    0.00000001
     atom    4 type  1   force =     0.00000000    0.00000000   -0.00000000
     atom    5 type  1   force =    -0.00000000    0.00000000    0.00000000
     atom    6 type  1   force =     0.00000000    0.00000000   -0.00000000
     atom    7 type  1   force =     0.00000000   -0.00000000    0.00000000
     atom    8 type  1   force =     0.00000000    0.00000000   -0.00000000
     atom    9 type  1   force =     0.00000000   -0.00000000    0.00000001
     atom   10 type  1   force =    -0.00000000   -0.00000000    0.00000001
     atom   11 type  1   force =     0.00000000    0.00000000    0.00000000
     atom   12 type  1   force =     0.00000000   -0.00000000    0.00000000
     atom   13 type  1   force =    -0.00000000    0.00000000    0.00000001
     atom   14 type  1   force =    -0.00000001    0.00000000   -0.00000001
     atom   15 type  1   force =    -0.00000000   -0.00000001   -0.00000001
     atom   16 type  1   force =    -0.00000001    0.00000000    0.00000002
     atom   17 type  1   force =    -0.00000000   -0.00000000    0.00000001
     atom   18 type  1   force =     0.00000000    0.00000000   -0.00000000
     atom   19 type  1   force =    -0.00000000    0.00000000    0.00000000
     atom   20 type  1   force =     0.00000000    0.00000000   -0.00000000
     atom   21 type  1   force =     0.00000000   -0.00000000    0.00000000
     atom   22 type  1   force =     0.00000000    0.00000000   -0.00000000
     atom   23 type  1   force =     0.00000000   -0.00000000    0.00000001
     atom   24 type  1   force =    -0.00000000   -0.00000000    0.00000001
     atom   25 type  1   force =     0.00000000    0.00000000    0.00000000
     atom   26 type  1   force =     0.00000000   -0.00000000    0.00000000
     atom   27 type  1   force =    -0.00000000    0.00000000    0.00000001
     atom   28 type  1   force =    -0.00000001    0.00000000   -0.00000001

     Total force =     0.001128     Total SCF correction =     0.000000

     Writing all to output data dir ./Li/Lithium.save/ :
     XML data file

     General routines

     Parallel routines

     PAW routines

     Environ routines

   This run was terminated on:   1:29:53  17Jan2025

   JOB DONE.