     Program PWSCF v.7.4 starts on  4Jan2025 at 19:15:19

     Reading input from espresso.pwi
Warning: card &CELL ignored
Warning: card    PRESS_CONV_THR   = 0.1 ignored
Warning: card    CELL_DOFREE      = 'ALL' ignored
Warning: card / ignored
Warning: card &FCP ignored
Warning: card / ignored
Warning: card &RISM ignored
Warning: card / ignored

     Current dimensions of program PWSCF are:
     Max number of different atomic species (ntypx) = 10
     Max number of k-points (npk) =  40000
     Max angular momentum in pseudopotentials (lmaxx) =  4

     IMPORTANT: XC functional enforced from input :
     Exchange-correlation= PBE
                           (   1   4   3   4   0   0   0)
     Any further DFT definition will be discarded
     Please, verify this is what you really want

     Reading input from environ.in:
     * using ionic solvent mode
     * setting boundary derivatives method to SSCS default
     * setting electrolyte-boundary derivatives method to SSCS default

Environ Warning (1001): card EOF ignored

     Found identity + (  0.5000  0.0000 -0.0000) symmetry
     This is a supercell, fractional translations are disabled

     K-points division:     npool     =       2
     R & G space division:  proc/nbgrp/npool/nimage =     256
     Subspace diagonalization in iterative solution of the eigenvalue problem:
     a serial algorithm will be used

     Using Slab Decomposition

     bravais-lattice index     =           12
     lattice parameter (alat)  =      12.9830  a.u.
     unit-cell volume          =   12574.0527 (a.u.)^3
     number of atoms/cell      =           20
     number of atomic types    =            1
     number of electrons       =        60.00
     number of Kohn-Sham states=           45
     kinetic-energy cutoff     =      80.0000  Ry
     charge density cutoff     =     800.0000  Ry
     scf convergence threshold =      1.0E-06
     mixing beta               =       0.2000
     number of iterations used =            8  local-TF  mixing
     energy convergence thresh.=      1.0E-05
     force convergence thresh. =      3.9E-04
     Exchange-correlation= PBE
                           (   1   4   3   4   0   0   0)
     nstep                     =          999

                                  Environ Setup Summary

          O. Andreussi, I. Dabo and N. Marzari, J. Chem. Phys. 136, 064102 (2012)
          F. Nattino, M. Truscott, N. Marzari, and O. Andreussi, J. Chem. Phys. 150, 041722 (2019)

     in publications or presentations arising from this work.

     Parameters

     compensation onset threshold      =               0.1000E+00
     static permittivity               =                    89.90
     surface tension in input (dyn/cm) =                    37.30
     surface tension in internal units =               0.4792E-04

     Solvent Boundary

     solvent mode                      =                    ionic
     derivatives method                =                   lowmem
     electrolyte derivatives method    =                   lowmem
     numerical core for derivatives    =                      fft
     switching function adopted        =                     SCCS
     density limit for vacuum region   =               0.5000E-02
     density limit for bulk solvent    =               0.1000E-03
     soft-sphere radius mode           =                    bondi
     soft-sphere softness              =                     0.50
     alpha                             =                     1.32

     Electrostatic Setup

     electrostatic problem to solve    =                    modpb
     numerical solver adopted          =                   newton
     type of auxiliary density adopted =                     none
     numerical core for poisson        =                      fft
     adopting a nested solver scheme
     inner solver                      =                       cg
     inner core                        =                      fft
     type of pbc corrections           =                parabolic
     numerical core for corrections    =                      1da

     >>>>> Grand-Canonical SCF is activated <<<<<
     Initial Total Charge  =     0.000000 e
     Target Fermi Energy   =    -1.904000 eV
     Thr. of Fermi Energy  =     0.001000 eV
     Wave-shift of Kerker  =     0.400000 bohr^-1
     Wave-shift of Hartree =     1.500000 bohr^-1
     Mixing Rate of Fermi  =     0.050000

     celldm(1)=  12.983009  celldm(2)=   0.829156  celldm(3)=   7.267908
     celldm(4)=  -0.301511  celldm(5)=   0.000000  celldm(6)=   0.000000

     crystal axes: (cart. coord. in units of alat)
               a(1) = (   1.000000   0.000000   0.000000 )
               a(2) = (  -0.250000   0.790569   0.000000 )
               a(3) = (   0.000000   0.000000   7.267908 )

     reciprocal axes: (cart. coord. in units 2 pi/alat)
               b(1) = (  1.000000  0.316228 -0.000000 )
               b(2) = (  0.000000  1.264912  0.000000 )
               b(3) = (  0.000000 -0.000000  0.137591 )

     PseudoPot. # 1 for Li read from file:
     /work/e89/e89/ba3g18/Repos/Pseudopotentials/Pslibrary/Li.pbe-sl-kjpaw_psl.1.0.0.UPF
     MD5 check sum: 3f4d2cafebb47c6c3aa8ed472e6f074d
     Pseudo is Projector augmented-wave, Zval =  3.0
     Generated using 'atomic' code by A. Dal Corso  v.7.4
     Shape of augmentation charge: PSQ
     Using radial grid of 1017 points,  4 beta functions with:
                l(1) =   0
                l(2) =   0
                l(3) =   1
                l(4) =   1
     Q(r) pseudized with 0 coefficients

     atomic species   valence    mass     pseudopotential
     Li                3.00     6.94000     Li( 1.00)

     No symmetry found

                                    s                        frac. trans.

      isym =  1     identity

 cryst.   s( 1) = (     1          0          0      )
                  (     0          1          0      )
                  (     0          0          1      )

 cart.    s( 1) = (  1.0000000 -0.0000000  0.0000000 )
                  (  0.0000000  1.0000000  0.0000000 )
                  (  0.0000000  0.0000000  1.0000000 )

     point group C_1 (1)
     there are  1 classes
     the character table:

       E
A      1.00

     the symmetry operations in each class and the name of the first element:

     E        1
          identity

   Cartesian axes

     site n.     atom                  positions (alat units)
         1        Li     tau(   1) = (   0.2503103   0.3218140   3.0518230  )
         2        Li     tau(   2) = (   0.0003152   0.6255006   3.2534952  )
         3        Li     tau(   3) = (   0.0001433   0.1650999   3.3731645  )
         4        Li     tau(   4) = (   0.2500947   0.4648034   3.5690180  )
         5        Li     tau(   5) = (   0.2499049   0.0092485   3.6991507  )
         6        Li     tau(   6) = (  -0.0001413   0.3091449   3.8947820  )
         7        Li     tau(   7) = (   0.2496856   0.6393059   4.0145207  )
         8        Li     tau(   8) = (   0.2496878   0.1527592   4.2158541  )
         9        Li     tau(   9) = (  -0.0003601   0.5056133   4.3415404  )
        10        Li     tau(  10) = (   0.5003576  -0.0310118   2.9261827  )
        11        Li     tau(  11) = (   0.7503096   0.3218148   3.0518201  )
        12        Li     tau(  12) = (   0.5003142   0.6254996   3.2534956  )
        13        Li     tau(  13) = (   0.5001447   0.1651012   3.3731662  )
        14        Li     tau(  14) = (   0.7500969   0.4648014   3.5690194  )
        15        Li     tau(  15) = (   0.7499039   0.0092479   3.6991528  )
        16        Li     tau(  16) = (   0.4998537   0.3091470   3.8947841  )
        17        Li     tau(  17) = (   0.7496854   0.6393010   4.0145176  )
        18        Li     tau(  18) = (   0.7496921   0.1527590   4.2158527  )
        19        Li     tau(  19) = (   0.4996415   0.5056151   4.3415492  )
        20        Li     tau(  20) = (   1.0003602  -0.0310086   2.9261857  )

   Crystallographic axes

     site n.     atom                  positions (cryst. coord.)
         1        Li     tau(   1) = (  0.3520769  0.4070663  0.4199039  )
         2        Li     tau(   2) = (  0.1981160  0.7912031  0.4476522  )
         3        Li     tau(   3) = (  0.0523525  0.2088368  0.4641177  )
         4        Li     tau(   4) = (  0.3970786  0.5879353  0.4910654  )
         5        Li     tau(   5) = (  0.2528295  0.0116985  0.5089705  )
         6        Li     tau(   6) = (  0.0976190  0.3910410  0.5358876  )
         7        Li     tau(   7) = (  0.4518520  0.8086656  0.5523626  )
         8        Li     tau(   8) = (  0.2979945  0.1932269  0.5800643  )
         9        Li     tau(   9) = (  0.1595289  0.6395562  0.5973576  )
        10        Li     tau(  10) = (  0.4905508 -0.0392271  0.4026169  )
        11        Li     tau(  11) = (  0.8520764  0.4070673  0.4199035  )
        12        Li     tau(  12) = (  0.6981147  0.7912018  0.4476523  )
        13        Li     tau(  13) = (  0.5523543  0.2088384  0.4641179  )
        14        Li     tau(  14) = (  0.8970801  0.5879328  0.4910656  )
        15        Li     tau(  15) = (  0.7528284  0.0116978  0.5089708  )
        16        Li     tau(  16) = (  0.5976146  0.3910436  0.5358879  )
        17        Li     tau(  17) = (  0.9518502  0.8086593  0.5523622  )
        18        Li     tau(  18) = (  0.7979988  0.1932267  0.5800641  )
        19        Li     tau(  19) = (  0.6595311  0.6395584  0.5973589  )
        20        Li     tau(  20) = (  0.9905544 -0.0392232  0.4026173  )

     number of k points=    62  Marzari-Vanderbilt smearing, width (Ry)=  0.0100
                       cart. coord. in units 2pi/alat
        k(    1) = (   0.0000000   0.0000000   0.0000000), wk =   0.0166667
        k(    2) = (   0.0000000   0.1054093   0.0000000), wk =   0.0333333
        k(    3) = (   0.0000000   0.2108186   0.0000000), wk =   0.0333333
        k(    4) = (   0.0000000   0.3162279   0.0000000), wk =   0.0333333
        k(    5) = (   0.0000000   0.4216372   0.0000000), wk =   0.0333333
        k(    6) = (   0.0000000   0.5270466   0.0000000), wk =   0.0333333
        k(    7) = (   0.0000000  -0.6324559   0.0000000), wk =   0.0166667
        k(    8) = (   0.1000000   0.0316228   0.0000000), wk =   0.0333333
        k(    9) = (   0.1000000   0.1370321   0.0000000), wk =   0.0333333
        k(   10) = (   0.1000000   0.2424414   0.0000000), wk =   0.0333333
        k(   11) = (   0.1000000   0.3478507   0.0000000), wk =   0.0333333
        k(   12) = (   0.1000000   0.4532600   0.0000000), wk =   0.0333333
        k(   13) = (   0.1000000   0.5586693   0.0000000), wk =   0.0333333
        k(   14) = (   0.1000000  -0.6008331   0.0000000), wk =   0.0333333
        k(   15) = (   0.1000000  -0.4954238   0.0000000), wk =   0.0333333
        k(   16) = (   0.1000000  -0.3900144   0.0000000), wk =   0.0333333
        k(   17) = (   0.1000000  -0.2846051   0.0000000), wk =   0.0333333
        k(   18) = (   0.1000000  -0.1791958   0.0000000), wk =   0.0333333
        k(   19) = (   0.1000000  -0.0737865   0.0000000), wk =   0.0333333
[...]
    -3.2373  -3.2373  -3.0347  -3.0347  -2.7627  -2.7627  -2.2355  -2.2355
    -2.0379  -2.0379  -1.4519  -1.4518  -1.1765  -1.1765  -0.6042  -0.6042
    -0.1658  -0.1657   0.2535   0.2535   0.4245

     occupation numbers
     1.0000   1.0000   1.0000   1.0000   1.0000   1.0000   1.0000   1.0000
     1.0000   1.0000   1.0000   1.0000   1.0000   1.0000   1.0000   1.0000
     1.0000   1.0000   1.0000   1.0000   1.0000   1.0000   1.0000   1.0000
     1.0000   1.0000   1.0000   1.0000   1.0000   1.0000   1.0128   1.0128
     1.0218   1.0218   0.0000   0.0000   0.0000   0.0000   0.0000   0.0000
     0.0000   0.0000   0.0000   0.0000   0.0000

     the Fermi energy is    -1.9040 ev

!    total energy              =    -300.80321956 Ry
     total all-electron energy =      -300.803382 Ry
     estimated scf accuracy    <          4.4E-13 Ry

!    total charge of GC-SCF    =      -2.81906139 e
     smearing contrib. (-TS)   =      -0.00063243 Ry
     internal energy E=F+TS    =    -300.80258714 Ry

     The total energy is F=E-TS. E is the sum of the following terms:
     one-electron contribution =   -3640.69801486 Ry
     hartree contribution      =    1789.87714687 Ry
     xc contribution           =     -72.46002703 Ry
     ewald contribution        =    1534.05613347 Ry
     one-center paw contrib.   =       1.76464268 Ry
      -> PAW hartree energy AE =       7.42394578 Ry
      -> PAW hartree energy PS =      -7.20093807 Ry
      -> PAW xc energy AE      =      -3.48359393 Ry
      -> PAW xc energy PS      =       3.34893461 Ry
      -> total E_H with PAW    =    1790.10015458 Ry
      -> total E_XC with PAW   =     -72.59468635 Ry
     pot.stat. contrib. (-muN) =       0.39450345 Ry
     electrostatic embedding   =      -2.20301117 Ry
     cavitation energy         =       0.01492078 Ry
     electrolyte free energy   =      -0.03299841 Ry
     correction to one-el term =      88.48411707 Ry

     WARNING: you are using the parabolic pbc correction;
              the potential shift above must be added to
              band and Fermi energies.

     convergence has been achieved in  19 iterations
     The dielectric solvent contribution to forces
     atom    1 type  1   force =     0.00000299   -0.01308542    0.12989404
     atom    2 type  1   force =     0.00000031    0.00441413    0.07838367
     atom    3 type  1   force =     0.00000080   -0.00155716    0.05374335
     atom    4 type  1   force =    -0.00000029    0.00010663    0.01362050
     atom    5 type  1   force =    -0.00000038   -0.00010567   -0.01362229
     atom    6 type  1   force =    -0.00000022    0.00155321   -0.05376457
     atom    7 type  1   force =    -0.00000059   -0.00440603   -0.07840558
     atom    8 type  1   force =    -0.00000336    0.01307730   -0.12994196
     atom    9 type  1   force =     0.00000375   -0.00900567   -0.08642382
     atom   10 type  1   force =    -0.00000134    0.00902964    0.08639322
     atom   11 type  1   force =     0.00000158   -0.01308651    0.12989246
     atom   12 type  1   force =     0.00000018    0.00441377    0.07838473
     atom   13 type  1   force =    -0.00000018   -0.00155709    0.05374189
     atom   14 type  1   force =     0.00000055    0.00010697    0.01361730
     atom   15 type  1   force =     0.00000011   -0.00010552   -0.01361962
     atom   16 type  1   force =    -0.00000039    0.00155351   -0.05376590
     atom   17 type  1   force =     0.00000008   -0.00440501   -0.07840320
     atom   18 type  1   force =    -0.00000124    0.01307797   -0.12994388
     atom   19 type  1   force =     0.00000233   -0.00900659   -0.08643155
     atom   20 type  1   force =    -0.00000469    0.00902589    0.08638781

     Forces acting on atoms (cartesian axes, Ry/au):

     atom    1 type  1   force =     0.00000055    0.00006389   -0.00000612
     atom    2 type  1   force =    -0.00000589    0.00037440   -0.00002781
     atom    3 type  1   force =    -0.00000105   -0.00025577    0.00007168
     atom    4 type  1   force =     0.00000614   -0.00024566    0.00033272
     atom    5 type  1   force =    -0.00000036    0.00023392   -0.00028996
     atom    6 type  1   force =    -0.00000251    0.00025062   -0.00005447
     atom    7 type  1   force =     0.00000164   -0.00038131    0.00002641
     atom    8 type  1   force =    -0.00000206   -0.00005100   -0.00002260
     atom    9 type  1   force =    -0.00000199   -0.00020047    0.00006624
     atom   10 type  1   force =    -0.00000020    0.00021458   -0.00010382
     atom   11 type  1   force =     0.00000332    0.00006498   -0.00000354
     atom   12 type  1   force =    -0.00000303    0.00038145   -0.00002129
     atom   13 type  1   force =     0.00000836   -0.00025175    0.00007163
     atom   14 type  1   force =    -0.00000097   -0.00025013    0.00032556
     atom   15 type  1   force =    -0.00000392    0.00023211   -0.00028856
     atom   16 type  1   force =    -0.00000519    0.00024406   -0.00005909
     atom   17 type  1   force =     0.00000723   -0.00038384    0.00003344
     atom   18 type  1   force =    -0.00000293   -0.00005144   -0.00001884
     atom   19 type  1   force =     0.00000107   -0.00019982    0.00007094
     atom   20 type  1   force =     0.00000180    0.00021120   -0.00010250
     The non-local contrib.  to forces
     atom    1 type  1   force =     0.00000383    0.00607642   -0.02463647
     atom    2 type  1   force =     0.00006336    0.00121563    0.00387563
     atom    3 type  1   force =     0.00001481    0.00056646    0.00067896
     atom    4 type  1   force =     0.00001190   -0.00176344   -0.00186869
     atom    5 type  1   force =    -0.00000363    0.00176935    0.00192092
     atom    6 type  1   force =    -0.00001946   -0.00054656   -0.00064984
     atom    7 type  1   force =    -0.00007025   -0.00123458   -0.00389101
     atom    8 type  1   force =    -0.00000569   -0.00607129    0.02459320
     atom    9 type  1   force =    -0.00001868    0.00580342    0.03769450
     atom   10 type  1   force =     0.00001265   -0.00580593   -0.03772254
     atom   11 type  1   force =     0.00000973    0.00607574   -0.02462953
     atom   12 type  1   force =     0.00006914    0.00121848    0.00388098
     atom   13 type  1   force =     0.00002835    0.00056727    0.00068266
     atom   14 type  1   force =     0.00000095   -0.00176451   -0.00187469
     atom   15 type  1   force =    -0.00001032    0.00176970    0.00191125
     atom   16 type  1   force =    -0.00002347   -0.00055001   -0.00065622
     atom   17 type  1   force =    -0.00006255   -0.00123742   -0.00388485
     atom   18 type  1   force =    -0.00000679   -0.00606941    0.02459331
     atom   19 type  1   force =    -0.00001147    0.00580334    0.03770026
     atom   20 type  1   force =     0.00001781   -0.00580696   -0.03772439
     The ionic contribution  to forces
     atom    1 type  1   force =    -0.00000855    0.06714779   -9.69336651
     atom    2 type  1   force =    -0.00025659   -0.03404907   -6.19715915
     atom    3 type  1   force =    -0.00012194    0.01471207   -4.34401121
     atom    4 type  1   force =    -0.00004612   -0.01549492   -1.02862549
     atom    5 type  1   force =     0.00021371    0.01537167    1.02899066
     atom    6 type  1   force =     0.00001211   -0.01453820    4.34470043
     atom    7 type  1   force =     0.00014193    0.03371504    6.19682226
     atom    8 type  1   force =    -0.00003011   -0.06695884    9.69350580
     atom    9 type  1   force =     0.00005150    0.04444129   11.04711662
     atom   10 type  1   force =    -0.00011579   -0.04431330  -11.04779874
     atom   11 type  1   force =     0.00007024    0.06716694   -9.69337425
     atom   12 type  1   force =    -0.00013712   -0.03393024   -6.19716870
     atom   13 type  1   force =     0.00015455    0.01478264   -4.34386622
     atom   14 type  1   force =    -0.00023799   -0.01559307   -1.02848369
     atom   15 type  1   force =     0.00007985    0.01533766    1.02871241
     atom   16 type  1   force =    -0.00004737   -0.01464676    4.34472503
     atom   17 type  1   force =     0.00025110    0.03367281    6.19672571
     atom   18 type  1   force =    -0.00004226   -0.06693379    9.69333759
     atom   19 type  1   force =     0.00013939    0.04444784   11.04704709
     atom   20 type  1   force =    -0.00007054   -0.04433758  -11.04782962
     The local contribution  to forces
     atom    1 type  1   force =     0.00000226   -0.06007472    9.58810096
     atom    2 type  1   force =     0.00018702    0.02879386    6.11487210
     atom    3 type  1   force =     0.00010530   -0.01397718    4.28966029
     atom    4 type  1   force =     0.00004066    0.01690599    1.01720619
     atom    5 type  1   force =    -0.00021006   -0.01680135   -1.01757940
     atom    6 type  1   force =     0.00000507    0.01378223   -4.29034041
     atom    7 type  1   force =    -0.00006944   -0.02845588   -6.11449953
     atom    8 type  1   force =     0.00003710    0.05990161   -9.58817781
     atom    9 type  1   force =    -0.00003860   -0.04144012  -10.99831679
     atom   10 type  1   force =     0.00010429    0.04130477   10.99901994
     atom   11 type  1   force =    -0.00007822   -0.06009101    9.58810593
     atom   12 type  1   force =     0.00006476    0.02867961    6.11488177
     atom   13 type  1   force =    -0.00017435   -0.01404461    4.28951299
     atom   14 type  1   force =     0.00023554    0.01700039    1.01706643
     atom   15 type  1   force =    -0.00007356   -0.01676965   -1.01729276
     atom   16 type  1   force =     0.00006603    0.01388739   -4.29036192
     atom   17 type  1   force =    -0.00018139   -0.02841437   -6.11440447
     atom   18 type  1   force =     0.00004736    0.05987359   -9.58800400
     atom   19 type  1   force =    -0.00012919   -0.04144503  -10.99824058
     atom   20 type  1   force =     0.00005925    0.04133048   10.99905941
     The core correction contribution to forces
     atom    1 type  1   force =     0.00000000    0.00000000    0.00000000
     atom    2 type  1   force =     0.00000000    0.00000000    0.00000000
     atom    3 type  1   force =     0.00000000    0.00000000    0.00000000
     atom    4 type  1   force =     0.00000000    0.00000000    0.00000000
     atom    5 type  1   force =     0.00000000    0.00000000    0.00000000
     atom    6 type  1   force =     0.00000000    0.00000000    0.00000000
     atom    7 type  1   force =     0.00000000    0.00000000    0.00000000
     atom    8 type  1   force =     0.00000000    0.00000000    0.00000000
     atom    9 type  1   force =     0.00000000    0.00000000    0.00000000
     atom   10 type  1   force =     0.00000000    0.00000000    0.00000000
     atom   11 type  1   force =     0.00000000    0.00000000    0.00000000
     atom   12 type  1   force =     0.00000000    0.00000000    0.00000000
     atom   13 type  1   force =     0.00000000    0.00000000    0.00000000
     atom   14 type  1   force =     0.00000000    0.00000000    0.00000000
     atom   15 type  1   force =     0.00000000    0.00000000    0.00000000
     atom   16 type  1   force =     0.00000000    0.00000000    0.00000000
     atom   17 type  1   force =     0.00000000    0.00000000    0.00000000
     atom   18 type  1   force =     0.00000000    0.00000000    0.00000000
     atom   19 type  1   force =     0.00000000    0.00000000    0.00000000
     atom   20 type  1   force =     0.00000000    0.00000000    0.00000000
     The Hubbard contrib.    to forces
     atom    1 type  1   force =     0.00000000    0.00000000    0.00000000
     atom    2 type  1   force =     0.00000000    0.00000000    0.00000000
     atom    3 type  1   force =     0.00000000    0.00000000    0.00000000
     atom    4 type  1   force =     0.00000000    0.00000000    0.00000000
     atom    5 type  1   force =     0.00000000    0.00000000    0.00000000
     atom    6 type  1   force =     0.00000000    0.00000000    0.00000000
     atom    7 type  1   force =     0.00000000    0.00000000    0.00000000
     atom    8 type  1   force =     0.00000000    0.00000000    0.00000000
     atom    9 type  1   force =     0.00000000    0.00000000    0.00000000
     atom   10 type  1   force =     0.00000000    0.00000000    0.00000000
     atom   11 type  1   force =     0.00000000    0.00000000    0.00000000
     atom   12 type  1   force =     0.00000000    0.00000000    0.00000000
     atom   13 type  1   force =     0.00000000    0.00000000    0.00000000
     atom   14 type  1   force =     0.00000000    0.00000000    0.00000000
     atom   15 type  1   force =     0.00000000    0.00000000    0.00000000
     atom   16 type  1   force =     0.00000000    0.00000000    0.00000000
     atom   17 type  1   force =     0.00000000    0.00000000    0.00000000
     atom   18 type  1   force =     0.00000000    0.00000000    0.00000000
     atom   19 type  1   force =     0.00000000    0.00000000    0.00000000
     atom   20 type  1   force =     0.00000000    0.00000000    0.00000000
     The SCF correction term to forces
     atom    1 type  1   force =     0.00000001   -0.00000017    0.00000188
     atom    2 type  1   force =     0.00000001   -0.00000015   -0.00000005
     atom    3 type  1   force =    -0.00000000    0.00000004    0.00000032
     atom    4 type  1   force =    -0.00000001    0.00000010    0.00000023
     atom    5 type  1   force =    -0.00000000   -0.00000007    0.00000017
     atom    6 type  1   force =    -0.00000000   -0.00000006   -0.00000005
     atom    7 type  1   force =     0.00000001    0.00000015    0.00000029
     atom    8 type  1   force =     0.00000001    0.00000022   -0.00000181
     atom    9 type  1   force =     0.00000004    0.00000063   -0.00000424
     atom   10 type  1   force =    -0.00000001   -0.00000059    0.00000431
     atom   11 type  1   force =     0.00000000   -0.00000018    0.00000187
     atom   12 type  1   force =     0.00000002   -0.00000016   -0.00000005
     atom   13 type  1   force =    -0.00000000    0.00000003    0.00000033
     atom   14 type  1   force =    -0.00000000    0.00000010    0.00000024
     atom   15 type  1   force =     0.00000001   -0.00000008    0.00000019
     atom   16 type  1   force =     0.00000001   -0.00000005   -0.00000005
     atom   17 type  1   force =    -0.00000001    0.00000015    0.00000027
     atom   18 type  1   force =     0.00000000    0.00000021   -0.00000183
     atom   19 type  1   force =     0.00000002    0.00000063   -0.00000425
     atom   20 type  1   force =    -0.00000002   -0.00000062    0.00000431

     Total force =     0.001297     Total SCF correction =     0.000009
     Energy error            =      4.3E-06 Ry
     Gradient error          =      3.8E-04 Ry/Bohr

     bfgs converged in  27 scf cycles and  26 bfgs steps
     (criteria: energy <  1.0E-05 Ry, force <  3.9E-04 Ry/Bohr)

     End of BFGS Geometry Optimization

     Final energy             =    -300.8032195639 Ry

     File ./Li/Lithium.bfgs deleted, as requested
Begin final coordinates

ATOMIC_POSITIONS (angstrom)
Li               1.7192352853        2.2418252812       20.9264728453
Li               0.0021047714        4.2839283921       22.4057680050
Li               0.0008552938        1.1627633265       23.1597220929
Li               1.7184383539        3.1849225151       24.5344417319
Li               1.7166472478        0.0745487463       25.3970808719
Li              -0.0007921174        2.0963601297       26.7726731451
Li               1.7154885166        4.4068314474       27.5267906216
Li               1.7159492740        1.0164350657       29.0073622326
Li              -0.0026215574        3.4421318038       29.7570285142
Li               3.4378173866       -0.1839667576       20.1768053392
Li               5.1543208465        2.2418335441       20.9264245424
Li               3.4372805756        4.2837859898       22.4057059118
Li               3.4359034460        1.1626806659       23.1597554336
Li               5.1537122764        3.1849898734       24.5345656040
Li               5.1518029332        0.0745815052       25.3969980581
Li               3.4343493611        2.0964646496       26.7727292839
Li               5.1505951796        4.4068402191       27.5267004056
Li               5.1511558625        1.0164651852       29.0072448978
Li               3.4324895583        3.4421049801       29.7569263517
Li               6.8729261096       -0.1838487881       20.1767589956
End final coordinates

     Writing all to output data dir ./Li/Lithium.save/ :
     XML data file

     General routines

     Parallel routines

     PAW routines

     Environ routines

   This run was terminated on:  21:36:55   4Jan2025

   JOB DONE.