     Program PWSCF v.7.4 starts on 24Jan2025 at  1:57:13

     Reading input from espresso.pwi
Warning: card &CELL ignored
Warning: card    PRESS_CONV_THR   = 0.1 ignored
Warning: card    CELL_DOFREE      = 'ALL' ignored
Warning: card / ignored
Warning: card &FCP ignored
Warning: card / ignored
Warning: card &RISM ignored
Warning: card / ignored

     Current dimensions of program PWSCF are:
     Max number of different atomic species (ntypx) = 10
     Max number of k-points (npk) =  40000
     Max angular momentum in pseudopotentials (lmaxx) =  4

     IMPORTANT: XC functional enforced from input :
     Exchange-correlation= PBE
                           (   1   4   3   4   0   0   0)
     Any further DFT definition will be discarded
     Please, verify this is what you really want

     Reading input from environ.in:
     * using ionic solvent mode
     * setting boundary derivatives method to SSCS default
     * setting electrolyte-boundary derivatives method to SSCS default

Environ Warning (1001): card EOF ignored

     R & G space division:  proc/nbgrp/npool/nimage =     256
     Subspace diagonalization in iterative solution of the eigenvalue problem:
     a serial algorithm will be used

     Using Slab Decomposition

     bravais-lattice index     =           14
     lattice parameter (alat)  =      11.2436  a.u.
     unit-cell volume          =   10615.2838 (a.u.)^3
     number of atoms/cell      =           16
     number of atomic types    =            1
     number of electrons       =        48.00
     number of Kohn-Sham states=           36
     kinetic-energy cutoff     =      80.0000  Ry
     charge density cutoff     =     800.0000  Ry
     scf convergence threshold =      1.0E-06
     mixing beta               =       0.2000
     number of iterations used =            8  local-TF  mixing
     energy convergence thresh.=      1.0E-05
     force convergence thresh. =      3.9E-04
     Exchange-correlation= PBE
                           (   1   4   3   4   0   0   0)
     nstep                     =          999

                                  Environ Setup Summary

          O. Andreussi, I. Dabo and N. Marzari, J. Chem. Phys. 136, 064102 (2012)
          F. Nattino, M. Truscott, N. Marzari, and O. Andreussi, J. Chem. Phys. 150, 041722 (2019)

     in publications or presentations arising from this work.

     Parameters

     compensation onset threshold      =               0.1000E+00
     static permittivity               =                    89.90
     surface tension in input (dyn/cm) =                    37.30
     surface tension in internal units =               0.4792E-04

     Solvent Boundary

     solvent mode                      =                    ionic
     derivatives method                =                   lowmem
     electrolyte derivatives method    =                   lowmem
     numerical core for derivatives    =                      fft
     switching function adopted        =                     SCCS
     density limit for vacuum region   =               0.5000E-02
     density limit for bulk solvent    =               0.1000E-03
     soft-sphere radius mode           =                    bondi
     soft-sphere softness              =                     0.50
     alpha                             =                     1.32

     Electrostatic Setup

     electrostatic problem to solve    =                    modpb
     numerical solver adopted          =                   newton
     type of auxiliary density adopted =                     none
     numerical core for poisson        =                      fft
     adopting a nested solver scheme
     inner solver                      =                       cg
     inner core                        =                      fft
     type of pbc corrections           =                parabolic
     numerical core for corrections    =                      1da

     >>>>> Grand-Canonical SCF is activated <<<<<
     Initial Total Charge  =     0.000000 e
     Target Fermi Energy   =    -1.654000 eV
     Thr. of Fermi Energy  =     0.001000 eV
     Wave-shift of Kerker  =     0.400000 bohr^-1
     Wave-shift of Hartree =     1.500000 bohr^-1
     Mixing Rate of Fermi  =     0.050000

     celldm(1)=  11.243615  celldm(2)=   1.000000  celldm(3)=   7.921182
     celldm(4)=   0.000000  celldm(5)=   0.000000  celldm(6)=  -0.333333

     crystal axes: (cart. coord. in units of alat)
               a(1) = (   1.000000   0.000000   0.000000 )
               a(2) = (  -0.333333   0.942809   0.000000 )
               a(3) = (   0.000000   0.000000   7.921182 )

     reciprocal axes: (cart. coord. in units 2 pi/alat)
               b(1) = (  1.000000  0.353553 -0.000000 )
               b(2) = (  0.000000  1.060660  0.000000 )
               b(3) = (  0.000000 -0.000000  0.126244 )

     PseudoPot. # 1 for Li read from file:
     /work/e89/e89/ba3g18/Repos/Pseudopotentials/Pslibrary/Li.pbe-sl-kjpaw_psl.1.0.0.UPF
     MD5 check sum: 3f4d2cafebb47c6c3aa8ed472e6f074d
     Pseudo is Projector augmented-wave, Zval =  3.0
     Generated using 'atomic' code by A. Dal Corso  v.7.4
     Shape of augmentation charge: PSQ
     Using radial grid of 1017 points,  4 beta functions with:
                l(1) =   0
                l(2) =   0
                l(3) =   1
                l(4) =   1
     Q(r) pseudized with 0 coefficients

     atomic species   valence    mass     pseudopotential
     Li                3.00     6.94000     Li( 1.00)

      2 Sym. Ops. (no inversion) found

                                    s                        frac. trans.

      isym =  1     identity

 cryst.   s( 1) = (     1          0          0      )
                  (     0          1          0      )
                  (     0          0          1      )

 cart.    s( 1) = (  1.0000000 -0.0000000  0.0000000 )
                  (  0.0000000  1.0000000  0.0000000 )
                  (  0.0000000  0.0000000  1.0000000 )

      isym =  2     180 deg rotation - cart. axis [0,0,1]

 cryst.   s( 2) = (    -1          0          0      )
                  (     0         -1          0      )
                  (     0          0          1      )

 cart.    s( 2) = ( -1.0000000  0.0000000  0.0000000 )
                  (  0.0000000 -1.0000000  0.0000000 )
                  (  0.0000000  0.0000000  1.0000000 )

     point group C_2  (2)
     there are  2 classes
     the character table:

       E     C2
A      1.00  1.00
B      1.00 -1.00

     the symmetry operations in each class and the name of the first element:

     E        1
          identity
     C2       2
          180 deg rotation - cart. axis [0,0,1]

   Cartesian axes

     site n.     atom                  positions (alat units)
         1        Li     tau(   1) = (   0.1666578   0.2356939   3.3442038  )
         2        Li     tau(   2) = (   0.3333333   0.4714046   3.7533361  )
         3        Li     tau(   3) = (   0.1666670   0.2356844   4.1675908  )
         4        Li     tau(   4) = (   0.3333333   0.4714046   4.5772534  )
         5        Li     tau(   5) = (  -0.0000041   0.7071175   3.3441915  )
         6        Li     tau(   6) = (   0.1666667   0.9428090   3.7533389  )
         7        Li     tau(   7) = (   0.0000040   0.7071235   4.1675720  )
         8        Li     tau(   8) = (   0.1666667   0.9428090   4.5772518  )
         9        Li     tau(   9) = (   0.6666708   0.2356915   3.3441915  )
        10        Li     tau(  10) = (   0.8333333   0.4714046   3.7533443  )
        11        Li     tau(  11) = (   0.6666626   0.2356856   4.1675720  )
        12        Li     tau(  12) = (   0.8333333   0.4714046   4.5772625  )
        13        Li     tau(  13) = (   0.5000089   0.7071151   3.3442038  )
        14        Li     tau(  14) = (   0.6666667   0.9428090   3.7533497  )
        15        Li     tau(  15) = (   0.4999997   0.7071247   4.1675908  )
        16        Li     tau(  16) = (   0.6666667   0.9428090   4.5772444  )

   Crystallographic axes

     site n.     atom                  positions (cryst. coord.)
         1        Li     tau(   1) = (  0.2499881  0.2499912  0.4221850  )
         2        Li     tau(   2) = (  0.4999999  0.5000001  0.4738354  )
         3        Li     tau(   3) = (  0.2499939  0.2499811  0.5261324  )
         4        Li     tau(   4) = (  0.4999999  0.5000001  0.5778498  )
         5        Li     tau(   5) = (  0.2499995  0.7500115  0.4221834  )
         6        Li     tau(   6) = (  0.4999997  1.0000001  0.4738357  )
         7        Li     tau(   7) = (  0.2500097  0.7500177  0.5261301  )
         8        Li     tau(   8) = (  0.4999997  1.0000000  0.5778496  )
         9        Li     tau(   9) = (  0.7500002  0.2499886  0.4221834  )
        10        Li     tau(  10) = (  0.9999999  0.5000001  0.4738364  )
        11        Li     tau(  11) = (  0.7499900  0.2499823  0.5261301  )
        12        Li     tau(  12) = (  0.9999999  0.5000001  0.5778509  )
        13        Li     tau(  13) = (  0.7500116  0.7500089  0.4221850  )
        14        Li     tau(  14) = (  0.9999997  1.0000000  0.4738371  )
        15        Li     tau(  15) = (  0.7500058  0.7500190  0.5261324  )
        16        Li     tau(  16) = (  0.9999997  1.0000000  0.5778487  )

     number of k points=    61  Marzari-Vanderbilt smearing, width (Ry)=  0.0100
                       cart. coord. in units 2pi/alat
        k(    1) = (   0.0000000   0.0000000   0.0000000), wk =   0.0165289
        k(    2) = (   0.0000000   0.0964237   0.0000000), wk =   0.0330579
        k(    3) = (   0.0000000   0.1928473   0.0000000), wk =   0.0330579
        k(    4) = (   0.0000000   0.2892710   0.0000000), wk =   0.0330579
        k(    5) = (   0.0000000   0.3856946   0.0000000), wk =   0.0330579
        k(    6) = (   0.0000000   0.4821183   0.0000000), wk =   0.0330579
        k(    7) = (   0.0909091   0.0321412   0.0000000), wk =   0.0330579
        k(    8) = (   0.0909091   0.1285648   0.0000000), wk =   0.0330579
        k(    9) = (   0.0909091   0.2249885   0.0000000), wk =   0.0330579
        k(   10) = (   0.0909091   0.3214122   0.0000000), wk =   0.0330579
        k(   11) = (   0.0909091   0.4178358   0.0000000), wk =   0.0330579
        k(   12) = (   0.0909091   0.5142595   0.0000000), wk =   0.0330579
        k(   13) = (   0.0909091  -0.4499771   0.0000000), wk =   0.0330579
        k(   14) = (   0.0909091  -0.3535534   0.0000000), wk =   0.0330579
        k(   15) = (   0.0909091  -0.2571298   0.0000000), wk =   0.0330579
        k(   16) = (   0.0909091  -0.1607061   0.0000000), wk =   0.0330579
        k(   17) = (   0.0909091  -0.0642825   0.0000000), wk =   0.0330579
        k(   18) = (   0.1818182   0.0642824   0.0000000), wk =   0.0330579
        k(   19) = (   0.1818182   0.1607060   0.0000000), wk =   0.0330579
        k(   20) = (   0.1818182   0.2571297   0.0000000), wk =   0.0330579
        k(   21) = (   0.1818182   0.3535533   0.0000000), wk =   0.0330579
        k(   22) = (   0.1818182   0.4499770   0.0000000), wk =   0.0330579
        k(   23) = (   0.1818182   0.5464007   0.0000000), wk =   0.0330579
[...]

     number of scf cycles    =   1
     number of bfgs steps    =   0

     energy             new  =    -240.6956777548 Ry

     new trust radius        =       0.0005541451 bohr
     new conv_thr            =       0.0000010000 Ry

ATOMIC_POSITIONS (angstrom)
Li               0.9915918083        1.4023489950       19.8975953429
Li               1.9832882700        2.8047934300       22.3315989032
Li               0.9916456880        1.4022944387       24.7968928772
Li               1.9832882800        2.8047934500       27.2339654556
Li              -0.0000225951        4.2072521398       19.8975173212
Li               0.9916443500        5.6095863900       22.3316091209
Li               0.0000226187        4.2072828281       24.7967833609
Li               0.9916443300        5.6095863500       27.2339523858
Li               3.9665992151        1.4023343302       19.8975173812
Li               4.9582206700        2.8047934200       22.3316412126
Li               3.9665539913        1.4023036119       24.7967833809
Li               4.9582206800        2.8047934400       27.2340153471
Li               2.9749848117        4.2072374750       19.8975953129
Li               3.9665767500        5.6095863800       22.3316786237
Li               2.9749309220        4.2072920013       24.7968928472
Li               3.9665767300        5.6095863300       27.2339051834

     Writing config-only to output data dir ./Li/Lithium.save/ :
     XML data file     NEW-OLD atomic charge density approx. for the potential

[...]

     Self-consistent Calculation

[...]

     Threshold (ethr) on eigenvalues was too large:
     Diagonalizing with lowered threshold

     Davidson diagonalization with overlap

[...]

     add environment contribution to local potential

     total energy              =    -240.69567967 Ry
     estimated scf accuracy    <       0.00000002 Ry

     total charge of GC-SCF    =      -3.09707854 e
     the Fermi energy          =      -1.65265449 eV
                        (error :       0.00134551 eV)
     electrostatic embedding   =      -2.77932844 Ry
     cavitation energy         =       0.01235683 Ry
     electrolyte free energy   =      -0.05484688 Ry
     correction to one-el term =      84.70796824 Ry

     iteration #  3     ecut=    80.00 Ry     beta= 0.20
     Davidson diagonalization with overlap

     ethr =  4.71E-11,  avg # of iterations =  8.4

     negative rho (up, down):  1.526E-04 0.000E+00

     End of self-consistent calculation

[...]

          k = 0.4545 0.0643 0.0000 (128255 PWs)   bands (ev):

   -48.4196 -48.4183 -48.4178 -48.4165 -48.4112 -48.4107 -48.4099 -48.4094
   -48.1635 -48.1608 -48.1563 -48.1556 -48.1537 -48.1532 -48.1499 -48.1483
    -4.3807  -3.8882  -3.8354  -3.3396  -3.1214  -2.5455  -2.3440  -2.2259
    -1.7079  -1.6853  -1.5235  -1.2692  -0.8604  -0.8567  -0.7915  -0.4377
    -0.4123  -0.0942   0.1908   0.2173

     occupation numbers
     1.0000   1.0000   1.0000   1.0000   1.0000   1.0000   1.0000   1.0000
     1.0000   1.0000   1.0000   1.0000   1.0000   1.0000   1.0000   1.0000
     1.0000   1.0000   1.0000   1.0000   1.0000   1.0000   1.0000   1.0000
     0.6974   0.5732   0.0350   0.0000   0.0000   0.0000   0.0000   0.0000
     0.0000   0.0000   0.0000   0.0000

     the Fermi energy is    -1.6530 ev

!    total energy              =    -240.69567961 Ry
     total all-electron energy =      -240.695810 Ry
     estimated scf accuracy    <          4.8E-09 Ry

!    total charge of GC-SCF    =      -3.09661207 e
     smearing contrib. (-TS)   =      -0.00030311 Ry
     internal energy E=F+TS    =    -240.69537649 Ry

     The total energy is F=E-TS. E is the sum of the following terms:
     one-electron contribution =   -2624.44984483 Ry
     hartree contribution      =    1288.44203411 Ry
     xc contribution           =     -58.24530878 Ry
     ewald contribution        =    1069.88458017 Ry
     one-center paw contrib.   =       1.41117354 Ry
      -> PAW hartree energy AE =       7.45678885 Ry
      -> PAW hartree energy PS =      -7.23416440 Ry
      -> PAW xc energy AE      =      -3.49066035 Ry
      -> PAW xc energy PS      =       3.35623560 Ry
      -> total E_H with PAW    =    1288.66465855 Ry
      -> total E_XC with PAW   =     -58.37973353 Ry
     pot.stat. contrib. (-muN) =       0.37644509 Ry
     electrostatic embedding   =      -2.77931115 Ry
     cavitation energy         =       0.01235683 Ry
     electrolyte free energy   =      -0.05484529 Ry
     correction to one-el term =      84.70734382 Ry

     WARNING: you are using the parabolic pbc correction;
              the potential shift above must be added to
              band and Fermi energies.

     convergence has been achieved in   3 iterations
     The dielectric solvent contribution to forces
     atom    1 type  1   force =    -0.00000031   -0.00000173    0.14245486
     atom    2 type  1   force =    -0.00000000    0.00000000    0.04913864
     atom    3 type  1   force =    -0.00000001   -0.00000096   -0.04912087
     atom    4 type  1   force =    -0.00000000    0.00000003   -0.14252079
     atom    5 type  1   force =    -0.00000027    0.00000171    0.14245330
     atom    6 type  1   force =    -0.00000000   -0.00000000    0.04913819
     atom    7 type  1   force =     0.00000003    0.00000095   -0.04911664
     atom    8 type  1   force =    -0.00000001   -0.00000002   -0.14252124
     atom    9 type  1   force =     0.00000025   -0.00000171    0.14245331
     atom   10 type  1   force =    -0.00000000    0.00000000    0.04913680
     atom   11 type  1   force =    -0.00000003   -0.00000095   -0.04911664
     atom   12 type  1   force =    -0.00000001    0.00000003   -0.14251935
     atom   13 type  1   force =     0.00000029    0.00000173    0.14245485
     atom   14 type  1   force =    -0.00000000   -0.00000000    0.04913547
     atom   15 type  1   force =     0.00000001    0.00000096   -0.04912087
     atom   16 type  1   force =    -0.00000002   -0.00000003   -0.14252226

     Forces acting on atoms (cartesian axes, Ry/au):

     atom    1 type  1   force =     0.00000208    0.00000416    0.00003596
     atom    2 type  1   force =     0.00000000    0.00000000   -0.00028907
     atom    3 type  1   force =    -0.00000061    0.00000897    0.00036598
     atom    4 type  1   force =     0.00000000    0.00000000   -0.00011476
     atom    5 type  1   force =     0.00000311   -0.00000405    0.00003791
     atom    6 type  1   force =     0.00000000    0.00000000   -0.00029379
     atom    7 type  1   force =     0.00000063   -0.00000776    0.00037312
     atom    8 type  1   force =     0.00000000    0.00000000   -0.00011336
     atom    9 type  1   force =    -0.00000311    0.00000405    0.00003791
     atom   10 type  1   force =     0.00000000    0.00000000   -0.00029402
     atom   11 type  1   force =    -0.00000063    0.00000776    0.00037312
     atom   12 type  1   force =     0.00000000    0.00000000   -0.00011860
     atom   13 type  1   force =    -0.00000208   -0.00000416    0.00003596
     atom   14 type  1   force =     0.00000000    0.00000000   -0.00029351
     atom   15 type  1   force =     0.00000061   -0.00000897    0.00036598
     atom   16 type  1   force =     0.00000000    0.00000000   -0.00010882
     The non-local contrib.  to forces
     atom    1 type  1   force =     0.00000222    0.00000784   -0.02929855
     atom    2 type  1   force =     0.00000000    0.00000000    0.00144436
     atom    3 type  1   force =     0.00000101    0.00001167   -0.00133570
     atom    4 type  1   force =     0.00000000    0.00000000    0.02918791
     atom    5 type  1   force =     0.00000094   -0.00000436   -0.02930009
     atom    6 type  1   force =     0.00000000    0.00000000    0.00144013
     atom    7 type  1   force =     0.00000055   -0.00001233   -0.00133266
     atom    8 type  1   force =     0.00000000    0.00000000    0.02919523
     atom    9 type  1   force =    -0.00000094    0.00000436   -0.02930009
     atom   10 type  1   force =     0.00000000    0.00000000    0.00144585
     atom   11 type  1   force =    -0.00000055    0.00001233   -0.00133266
     atom   12 type  1   force =     0.00000000    0.00000000    0.02918598
     atom   13 type  1   force =    -0.00000222   -0.00000784   -0.02929855
     atom   14 type  1   force =     0.00000000    0.00000000    0.00144200
     atom   15 type  1   force =    -0.00000101   -0.00001167   -0.00133570
     atom   16 type  1   force =     0.00000000    0.00000000    0.02919421
     The ionic contribution  to forces
     atom    1 type  1   force =     0.00005023    0.00012212   -8.97389951
     atom    2 type  1   force =    -0.00000006   -0.00000006   -3.00446339
     atom    3 type  1   force =    -0.00001121    0.00023517    3.00519249
     atom    4 type  1   force =    -0.00000004   -0.00000011    8.97328051
     atom    5 type  1   force =     0.00006087   -0.00009970   -8.97404424
     atom    6 type  1   force =     0.00000006    0.00000007   -3.00453655
     atom    7 type  1   force =    -0.00000428   -0.00023265    3.00499329
     atom    8 type  1   force =     0.00000004    0.00000011    8.97334783
     atom    9 type  1   force =    -0.00006090    0.00009969   -8.97404406
     atom   10 type  1   force =    -0.00000001   -0.00000005   -3.00439880
     atom   11 type  1   force =     0.00000424    0.00023263    3.00499336
     atom   12 type  1   force =    -0.00000001   -0.00000011    8.97333508
     atom   13 type  1   force =    -0.00005025   -0.00012213   -8.97389967
     atom   14 type  1   force =     0.00000010    0.00000009   -3.00433209
     atom   15 type  1   force =     0.00001116   -0.00023520    3.00519239
     atom   16 type  1   force =     0.00000007    0.00000013    8.97328335
     The local contribution  to forces
     atom    1 type  1   force =     0.00000504   -0.00013522    8.86078909
     atom    2 type  1   force =     0.00005792   -0.00002187    2.95350816
     atom    3 type  1   force =     0.00006425   -0.00024745   -2.95429148
     atom    4 type  1   force =     0.00005735   -0.00002303   -8.86008226
     atom    5 type  1   force =    -0.00000320    0.00008825    8.86094063
     atom    6 type  1   force =     0.00010289   -0.00001644    2.95357908
     atom    7 type  1   force =     0.00005858    0.00022591   -2.95409258
     atom    8 type  1   force =     0.00010407   -0.00001409   -8.86015472
     atom    9 type  1   force =     0.00011442   -0.00010931    8.86093700
     atom   10 type  1   force =     0.00005868   -0.00002129    2.95343767
     atom   11 type  1   force =     0.00005320   -0.00024525   -2.95409379
     atom   12 type  1   force =     0.00005811   -0.00002245   -8.86013996
     atom   13 type  1   force =     0.00010618    0.00011416    8.86079091
     atom   14 type  1   force =     0.00010365   -0.00001586    2.95337842
     atom   15 type  1   force =     0.00004753    0.00022810   -2.95428967
     atom   16 type  1   force =     0.00010483   -0.00001292   -8.86008606
     The core correction contribution to forces
     atom    1 type  1   force =     0.00000000    0.00000000    0.00000000
     atom    2 type  1   force =     0.00000000    0.00000000    0.00000000
     atom    3 type  1   force =     0.00000000    0.00000000    0.00000000
     atom    4 type  1   force =     0.00000000    0.00000000    0.00000000
     atom    5 type  1   force =     0.00000000    0.00000000    0.00000000
     atom    6 type  1   force =     0.00000000    0.00000000    0.00000000
     atom    7 type  1   force =     0.00000000    0.00000000    0.00000000
     atom    8 type  1   force =     0.00000000    0.00000000    0.00000000
     atom    9 type  1   force =     0.00000000    0.00000000    0.00000000
     atom   10 type  1   force =     0.00000000    0.00000000    0.00000000
     atom   11 type  1   force =     0.00000000    0.00000000    0.00000000
     atom   12 type  1   force =     0.00000000    0.00000000    0.00000000
     atom   13 type  1   force =     0.00000000    0.00000000    0.00000000
     atom   14 type  1   force =     0.00000000    0.00000000    0.00000000
     atom   15 type  1   force =     0.00000000    0.00000000    0.00000000
     atom   16 type  1   force =     0.00000000    0.00000000    0.00000000
     The Hubbard contrib.    to forces
     atom    1 type  1   force =     0.00000000    0.00000000    0.00000000
     atom    2 type  1   force =     0.00000000    0.00000000    0.00000000
     atom    3 type  1   force =     0.00000000    0.00000000    0.00000000
     atom    4 type  1   force =     0.00000000    0.00000000    0.00000000
     atom    5 type  1   force =     0.00000000    0.00000000    0.00000000
     atom    6 type  1   force =     0.00000000    0.00000000    0.00000000
     atom    7 type  1   force =     0.00000000    0.00000000    0.00000000
     atom    8 type  1   force =     0.00000000    0.00000000    0.00000000
     atom    9 type  1   force =     0.00000000    0.00000000    0.00000000
     atom   10 type  1   force =     0.00000000    0.00000000    0.00000000
     atom   11 type  1   force =     0.00000000    0.00000000    0.00000000
     atom   12 type  1   force =     0.00000000    0.00000000    0.00000000
     atom   13 type  1   force =     0.00000000    0.00000000    0.00000000
     atom   14 type  1   force =     0.00000000    0.00000000    0.00000000
     atom   15 type  1   force =     0.00000000    0.00000000    0.00000000
     atom   16 type  1   force =     0.00000000    0.00000000    0.00000000
     The SCF correction term to forces
     atom    1 type  1   force =     0.00000049    0.00000061   -0.00000745
     atom    2 type  1   force =     0.00000000   -0.00000000    0.00008646
     atom    3 type  1   force =     0.00000120    0.00000085   -0.00007601
     atom    4 type  1   force =    -0.00000000    0.00000000    0.00002315
     atom    5 type  1   force =     0.00000036   -0.00000049   -0.00000668
     atom    6 type  1   force =     0.00000000   -0.00000000    0.00008865
     atom    7 type  1   force =     0.00000163    0.00000068   -0.00007442
     atom    8 type  1   force =    -0.00000000    0.00000000    0.00002284
     atom    9 type  1   force =    -0.00000036    0.00000049   -0.00000668
     atom   10 type  1   force =     0.00000000   -0.00000000    0.00008776
     atom   11 type  1   force =    -0.00000163   -0.00000068   -0.00007442
     atom   12 type  1   force =    -0.00000000    0.00000000    0.00002295
     atom   13 type  1   force =    -0.00000049   -0.00000061   -0.00000745
     atom   14 type  1   force =     0.00000000   -0.00000000    0.00008599
     atom   15 type  1   force =    -0.00000120   -0.00000085   -0.00007601
     atom   16 type  1   force =    -0.00000000    0.00000000    0.00002523

     Total force =     0.000973     Total SCF correction =     0.000236
     SCF correction compared to forces is large: reduce conv_thr to get better values
     Energy error            =      1.9E-06 Ry
     Gradient error          =      3.7E-04 Ry/Bohr

     bfgs converged in   2 scf cycles and   1 bfgs steps
     (criteria: energy <  1.0E-05 Ry, force <  3.9E-04 Ry/Bohr)

     End of BFGS Geometry Optimization

     Final energy             =    -240.6956796080 Ry

     File ./Li/Lithium.bfgs deleted, as requested
Begin final coordinates

ATOMIC_POSITIONS (angstrom)
Li               0.9915918083        1.4023489950       19.8975953429
Li               1.9832882700        2.8047934300       22.3315989032
Li               0.9916456880        1.4022944387       24.7968928772
Li               1.9832882800        2.8047934500       27.2339654556
Li              -0.0000225951        4.2072521398       19.8975173212
Li               0.9916443500        5.6095863900       22.3316091209
Li               0.0000226187        4.2072828281       24.7967833609
Li               0.9916443300        5.6095863500       27.2339523858
Li               3.9665992151        1.4023343302       19.8975173812
Li               4.9582206700        2.8047934200       22.3316412126
Li               3.9665539913        1.4023036119       24.7967833809
Li               4.9582206800        2.8047934400       27.2340153471
Li               2.9749848117        4.2072374750       19.8975953129
Li               3.9665767500        5.6095863800       22.3316786237
Li               2.9749309220        4.2072920013       24.7968928472
Li               3.9665767300        5.6095863300       27.2339051834
End final coordinates

     Writing all to output data dir ./Li/Lithium.save/ :
     XML data file

     General routines

     Parallel routines

     PAW routines

     Environ routines

   This run was terminated on:   2: 9:16  24Jan2025

   JOB DONE.