     Program PWSCF v.7.4 starts on  2Jan2025 at 21: 6: 9

     Reading input from espresso.pwi
Warning: card &CELL ignored
Warning: card    PRESS_CONV_THR   = 0.1 ignored
Warning: card    CELL_DOFREE      = 'ALL' ignored
Warning: card / ignored
Warning: card &FCP ignored
Warning: card / ignored
Warning: card &RISM ignored
Warning: card / ignored

     Current dimensions of program PWSCF are:
     Max number of different atomic species (ntypx) = 10
     Max number of k-points (npk) =  40000
     Max angular momentum in pseudopotentials (lmaxx) =  4

     IMPORTANT: XC functional enforced from input :
     Exchange-correlation= PBE
                           (   1   4   3   4   0   0   0)
     Any further DFT definition will be discarded
     Please, verify this is what you really want

     Reading input from environ.in:
     * using ionic solvent mode
     * setting boundary derivatives method to SSCS default
     * setting electrolyte-boundary derivatives method to SSCS default

Environ Warning (1001): card EOF ignored

     R & G space division:  proc/nbgrp/npool/nimage =     256
     Subspace diagonalization in iterative solution of the eigenvalue problem:
     a serial algorithm will be used

     Using Slab Decomposition

     bravais-lattice index     =           14
     lattice parameter (alat)  =      11.2436  a.u.
     unit-cell volume          =   10615.2838 (a.u.)^3
     number of atoms/cell      =           16
     number of atomic types    =            1
     number of electrons       =        48.00
     number of Kohn-Sham states=           36
     kinetic-energy cutoff     =      80.0000  Ry
     charge density cutoff     =     800.0000  Ry
     scf convergence threshold =      1.0E-06
     mixing beta               =       0.2000
     number of iterations used =            8  local-TF  mixing
     energy convergence thresh.=      1.0E-05
     force convergence thresh. =      3.9E-04
     Exchange-correlation= PBE
                           (   1   4   3   4   0   0   0)
     nstep                     =          999

                                  Environ Setup Summary

          O. Andreussi, I. Dabo and N. Marzari, J. Chem. Phys. 136, 064102 (2012)
          F. Nattino, M. Truscott, N. Marzari, and O. Andreussi, J. Chem. Phys. 150, 041722 (2019)

     in publications or presentations arising from this work.

     Parameters

     compensation onset threshold      =               0.1000E+00
     static permittivity               =                    89.90
     surface tension in input (dyn/cm) =                    37.30
     surface tension in internal units =               0.4792E-04

     Solvent Boundary

     solvent mode                      =                    ionic
     derivatives method                =                   lowmem
     electrolyte derivatives method    =                   lowmem
     numerical core for derivatives    =                      fft
     switching function adopted        =                     SCCS
     density limit for vacuum region   =               0.5000E-02
     density limit for bulk solvent    =               0.1000E-03
     soft-sphere radius mode           =                    bondi
     soft-sphere softness              =                     0.50
     alpha                             =                     1.32

     Electrostatic Setup

     electrostatic problem to solve    =                    modpb
     numerical solver adopted          =                   newton
     type of auxiliary density adopted =                     none
     numerical core for poisson        =                      fft
     adopting a nested solver scheme
     inner solver                      =                       cg
     inner core                        =                      fft
     type of pbc corrections           =                parabolic
     numerical core for corrections    =                      1da

     >>>>> Grand-Canonical SCF is activated <<<<<
     Initial Total Charge  =     0.000000 e
     Target Fermi Energy   =    -2.404000 eV
     Thr. of Fermi Energy  =     0.001000 eV
     Wave-shift of Kerker  =     0.400000 bohr^-1
     Wave-shift of Hartree =     1.500000 bohr^-1
     Mixing Rate of Fermi  =     0.050000

     celldm(1)=  11.243615  celldm(2)=   1.000000  celldm(3)=   7.921182
     celldm(4)=   0.000000  celldm(5)=   0.000000  celldm(6)=  -0.333333

     crystal axes: (cart. coord. in units of alat)
               a(1) = (   1.000000   0.000000   0.000000 )
               a(2) = (  -0.333333   0.942809   0.000000 )
               a(3) = (   0.000000   0.000000   7.921182 )

     reciprocal axes: (cart. coord. in units 2 pi/alat)
               b(1) = (  1.000000  0.353553 -0.000000 )
               b(2) = (  0.000000  1.060660  0.000000 )
               b(3) = (  0.000000 -0.000000  0.126244 )

     PseudoPot. # 1 for Li read from file:
     /work/e89/e89/ba3g18/Repos/Pseudopotentials/Pslibrary/Li.pbe-sl-kjpaw_psl.1.0.0.UPF
     MD5 check sum: 3f4d2cafebb47c6c3aa8ed472e6f074d
     Pseudo is Projector augmented-wave, Zval =  3.0
     Generated using 'atomic' code by A. Dal Corso  v.7.4
     Shape of augmentation charge: PSQ
     Using radial grid of 1017 points,  4 beta functions with:
                l(1) =   0
                l(2) =   0
                l(3) =   1
                l(4) =   1
     Q(r) pseudized with 0 coefficients

     atomic species   valence    mass     pseudopotential
     Li                3.00     6.94000     Li( 1.00)

      2 Sym. Ops. (no inversion) found

                                    s                        frac. trans.

      isym =  1     identity

 cryst.   s( 1) = (     1          0          0      )
                  (     0          1          0      )
                  (     0          0          1      )

 cart.    s( 1) = (  1.0000000 -0.0000000  0.0000000 )
                  (  0.0000000  1.0000000  0.0000000 )
                  (  0.0000000  0.0000000  1.0000000 )

      isym =  2     180 deg rotation - cart. axis [0,0,1]

 cryst.   s( 2) = (    -1          0          0      )
                  (     0         -1          0      )
                  (     0          0          1      )

 cart.    s( 2) = ( -1.0000000  0.0000000  0.0000000 )
                  (  0.0000000 -1.0000000  0.0000000 )
                  (  0.0000000  0.0000000  1.0000000 )

     point group C_2  (2)
     there are  2 classes
     the character table:

       E     C2
A      1.00  1.00
B      1.00 -1.00

     the symmetry operations in each class and the name of the first element:

     E        1
          identity
     C2       2
          180 deg rotation - cart. axis [0,0,1]

   Cartesian axes

     site n.     atom                  positions (alat units)
         1        Li     tau(   1) = (   0.1666611   0.2357034   3.3639703  )
         2        Li     tau(   2) = (   0.3333333   0.4714046   3.7569429  )
         3        Li     tau(   3) = (   0.1666692   0.2356974   4.1642346  )
         4        Li     tau(   4) = (   0.3333333   0.4714046   4.5571918  )
         5        Li     tau(   5) = (   0.0000048   0.7071101   3.3639940  )
         6        Li     tau(   6) = (   0.1666667   0.9428090   3.7569598  )
         7        Li     tau(   7) = (  -0.0000024   0.7071026   4.1642436  )
         8        Li     tau(   8) = (   0.1666667   0.9428090   4.5572081  )
         9        Li     tau(   9) = (   0.6666619   0.2356990   3.3639940  )
        10        Li     tau(  10) = (   0.8333333   0.4714046   3.7569543  )
        11        Li     tau(  11) = (   0.6666691   0.2357064   4.1642436  )
        12        Li     tau(  12) = (   0.8333333   0.4714046   4.5572101  )
        13        Li     tau(  13) = (   0.5000056   0.7071057   3.3639703  )
        14        Li     tau(  14) = (   0.6666667   0.9428090   3.7569426  )
        15        Li     tau(  15) = (   0.4999974   0.7071116   4.1642346  )
        16        Li     tau(  16) = (   0.6666667   0.9428090   4.5572029  )

   Crystallographic axes

     site n.     atom                  positions (cryst. coord.)
         1        Li     tau(   1) = (  0.2499948  0.2500012  0.4246803  )
         2        Li     tau(   2) = (  0.4999999  0.5000001  0.4742907  )
         3        Li     tau(   3) = (  0.2500008  0.2499949  0.5257087  )
         4        Li     tau(   4) = (  0.4999999  0.5000001  0.5753171  )
         5        Li     tau(   5) = (  0.2500057  0.7500035  0.4246833  )
         6        Li     tau(   6) = (  0.4999997  1.0000001  0.4742928  )
         7        Li     tau(   7) = (  0.2499959  0.7499956  0.5257099  )
         8        Li     tau(   8) = (  0.4999997  1.0000000  0.5753192  )
         9        Li     tau(   9) = (  0.7499940  0.2499965  0.4246833  )
        10        Li     tau(  10) = (  0.9999999  0.5000001  0.4742921  )
        11        Li     tau(  11) = (  0.7500038  0.2500044  0.5257099  )
        12        Li     tau(  12) = (  0.9999999  0.5000001  0.5753195  )
        13        Li     tau(  13) = (  0.7500049  0.7499989  0.4246803  )
        14        Li     tau(  14) = (  0.9999997  1.0000000  0.4742906  )
        15        Li     tau(  15) = (  0.7499989  0.7500052  0.5257087  )
        16        Li     tau(  16) = (  0.9999997  1.0000000  0.5753185  )

     number of k points=    61  Marzari-Vanderbilt smearing, width (Ry)=  0.0100
                       cart. coord. in units 2pi/alat
        k(    1) = (   0.0000000   0.0000000   0.0000000), wk =   0.0165289
        k(    2) = (   0.0000000   0.0964237   0.0000000), wk =   0.0330579
        k(    3) = (   0.0000000   0.1928473   0.0000000), wk =   0.0330579
        k(    4) = (   0.0000000   0.2892710   0.0000000), wk =   0.0330579
        k(    5) = (   0.0000000   0.3856946   0.0000000), wk =   0.0330579
        k(    6) = (   0.0000000   0.4821183   0.0000000), wk =   0.0330579
        k(    7) = (   0.0909091   0.0321412   0.0000000), wk =   0.0330579
        k(    8) = (   0.0909091   0.1285648   0.0000000), wk =   0.0330579
        k(    9) = (   0.0909091   0.2249885   0.0000000), wk =   0.0330579
        k(   10) = (   0.0909091   0.3214122   0.0000000), wk =   0.0330579
        k(   11) = (   0.0909091   0.4178358   0.0000000), wk =   0.0330579
        k(   12) = (   0.0909091   0.5142595   0.0000000), wk =   0.0330579
        k(   13) = (   0.0909091  -0.4499771   0.0000000), wk =   0.0330579
        k(   14) = (   0.0909091  -0.3535534   0.0000000), wk =   0.0330579
        k(   15) = (   0.0909091  -0.2571298   0.0000000), wk =   0.0330579
        k(   16) = (   0.0909091  -0.1607061   0.0000000), wk =   0.0330579
        k(   17) = (   0.0909091  -0.0642825   0.0000000), wk =   0.0330579
        k(   18) = (   0.1818182   0.0642824   0.0000000), wk =   0.0330579
        k(   19) = (   0.1818182   0.1607060   0.0000000), wk =   0.0330579
        k(   20) = (   0.1818182   0.2571297   0.0000000), wk =   0.0330579
        k(   21) = (   0.1818182   0.3535533   0.0000000), wk =   0.0330579
        k(   22) = (   0.1818182   0.4499770   0.0000000), wk =   0.0330579
        k(   23) = (   0.1818182   0.5464007   0.0000000), wk =   0.0330579
[...]
     number of bfgs steps    =  18

     energy             old  =    -240.5678359840 Ry
     energy             new  =    -240.5678559743 Ry

     CASE: energy            _new < energy            _old

     new trust radius        =       0.0045128877 bohr
     new conv_thr            =            1.0E-12 Ry

ATOMIC_POSITIONS (angstrom)
Li               0.9916331848        1.4024069297       19.9401151504
Li               1.9832882700        2.8047934300       22.3459975061
Li               0.9916432348        1.4023887489       24.7839286437
Li               1.9832882800        2.8047934500       27.1898290318
Li               0.0000127753        4.2072038830       19.9401762499
Li               0.9916443500        5.6095863900       22.3460752768
Li               0.0000031707        4.2071682679       24.7840026703
Li               0.9916443300        5.6095863500       27.1898568408
Li               3.9665638447        1.4023825870       19.9401763099
Li               4.9582206700        2.8047934200       22.3460469914
Li               3.9665734393        1.4024181721       24.7840026903
Li               4.9582206800        2.8047934400       27.1899035667
Li               2.9749434352        4.2071795403       19.9401151204
Li               3.9665767500        5.6095863800       22.3459876405
Li               2.9749333752        4.2071976911       24.7839286137
Li               3.9665767300        5.6095863300       27.1898017542

     Writing config-only to output data dir ./Li/Lithium.save/ :
     XML data file     NEW-OLD atomic charge density approx. for the potential

[...]

     Self-consistent Calculation

[...]

     Threshold (ethr) on eigenvalues was too large:
     Diagonalizing with lowered threshold

     Davidson diagonalization with overlap

[...]

     add environment contribution to local potential

     total energy              =    -240.56786417 Ry
     estimated scf accuracy    <          1.5E-12 Ry

     total charge of GC-SCF    =      -1.36228635 e
     the Fermi energy          =      -2.40396046 eV
                        (error :       0.00003954 eV)
     electrostatic embedding   =      -0.62127510 Ry
     cavitation energy         =       0.01235683 Ry
     electrolyte free energy   =      -0.00438412 Ry
     correction to one-el term =      39.41147377 Ry

     iteration # 12     ecut=    80.00 Ry     beta= 0.20
     Davidson diagonalization with overlap

     ethr =  1.00E-13,  avg # of iterations =  6.9

     negative rho (up, down):  1.954E-04 0.000E+00

     End of self-consistent calculation

[...]

          k = 0.4545 0.0643 0.0000 (128255 PWs)   bands (ev):

   -49.2019 -49.2019 -49.2001 -49.2001 -49.1935 -49.1935 -49.1930 -49.1930
   -48.9020 -48.8991 -48.8944 -48.8937 -48.8921 -48.8914 -48.8882 -48.8864
    -5.1333  -4.5919  -4.5639  -4.0285  -3.6073  -3.0686  -2.9924  -2.5892
    -2.3993  -2.0380  -1.9922  -1.7921  -1.5869  -1.3855  -1.1653  -1.1421
    -1.0940  -0.2389   0.0194   0.3050

     occupation numbers
     1.0000   1.0000   1.0000   1.0000   1.0000   1.0000   1.0000   1.0000
     1.0000   1.0000   1.0000   1.0000   1.0000   1.0000   1.0000   1.0000
     1.0000   1.0000   1.0000   1.0000   1.0000   1.0000   1.0000   1.0826
     0.3774   0.0000   0.0000   0.0000   0.0000   0.0000   0.0000   0.0000
     0.0000   0.0000   0.0000   0.0000

     the Fermi energy is    -2.4040 ev

!    total energy              =    -240.56786417 Ry
     total all-electron energy =      -240.567994 Ry
     estimated scf accuracy    <          9.2E-13 Ry

!    total charge of GC-SCF    =      -1.36226972 e
     smearing contrib. (-TS)   =       0.00059328 Ry
     internal energy E=F+TS    =    -240.56845745 Ry

     The total energy is F=E-TS. E is the sum of the following terms:
     one-electron contribution =   -2548.79613617 Ry
     hartree contribution      =    1249.11162388 Ry
     xc contribution           =     -57.72681460 Ry
     ewald contribution        =    1076.39397549 Ry
     one-center paw contrib.   =       1.41030959 Ry
      -> PAW hartree energy AE =       7.45241477 Ry
      -> PAW hartree energy PS =      -7.22998510 Ry
      -> PAW xc energy AE      =      -3.49030896 Ry
      -> PAW xc energy PS      =       3.35600204 Ry
      -> total E_H with PAW    =    1249.33405355 Ry
      -> total E_XC with PAW   =     -57.86112152 Ry
     pot.stat. contrib. (-muN) =       0.24070045 Ry
     electrostatic embedding   =      -0.62126521 Ry
     cavitation energy         =       0.01235683 Ry
     electrolyte free energy   =      -0.00438400 Ry
     correction to one-el term =      39.41117630 Ry

     WARNING: you are using the parabolic pbc correction;
              the potential shift above must be added to
              band and Fermi energies.

     convergence has been achieved in  12 iterations
     The dielectric solvent contribution to forces
     atom    1 type  1   force =     0.00000000    0.00000001    0.06269495
     atom    2 type  1   force =     0.00000000    0.00000001    0.02196051
     atom    3 type  1   force =    -0.00000002    0.00000005   -0.02196022
     atom    4 type  1   force =    -0.00000000    0.00000003   -0.06269671
     atom    5 type  1   force =     0.00000007    0.00000008    0.06269653
     atom    6 type  1   force =    -0.00000000   -0.00000000    0.02195931
     atom    7 type  1   force =    -0.00000003   -0.00000012   -0.02196131
     atom    8 type  1   force =    -0.00000001   -0.00000003   -0.06269673
     atom    9 type  1   force =    -0.00000008   -0.00000008    0.06269653
     atom   10 type  1   force =    -0.00000000    0.00000001    0.02195983
     atom   11 type  1   force =     0.00000003    0.00000012   -0.02196131
     atom   12 type  1   force =    -0.00000001    0.00000003   -0.06269447
     atom   13 type  1   force =    -0.00000001   -0.00000001    0.06269494
     atom   14 type  1   force =    -0.00000000   -0.00000001    0.02196065
     atom   15 type  1   force =     0.00000002   -0.00000005   -0.02196022
     atom   16 type  1   force =    -0.00000002   -0.00000003   -0.06269781

     Forces acting on atoms (cartesian axes, Ry/au):

     atom    1 type  1   force =    -0.00000003   -0.00000010    0.00011242
     atom    2 type  1   force =     0.00000000    0.00000000   -0.00012637
     atom    3 type  1   force =     0.00000021   -0.00000013    0.00012678
     atom    4 type  1   force =     0.00000000    0.00000000   -0.00011328
     atom    5 type  1   force =    -0.00000018    0.00000005    0.00011268
     atom    6 type  1   force =     0.00000000    0.00000000   -0.00012669
     atom    7 type  1   force =    -0.00000029    0.00000025    0.00012606
     atom    8 type  1   force =     0.00000000    0.00000000   -0.00011210
     atom    9 type  1   force =     0.00000018   -0.00000005    0.00011268
     atom   10 type  1   force =     0.00000000    0.00000000   -0.00012639
     atom   11 type  1   force =     0.00000029   -0.00000025    0.00012606
     atom   12 type  1   force =     0.00000000    0.00000000   -0.00011281
     atom   13 type  1   force =     0.00000003    0.00000010    0.00011242
     atom   14 type  1   force =     0.00000000    0.00000000   -0.00012592
     atom   15 type  1   force =    -0.00000021    0.00000013    0.00012678
     atom   16 type  1   force =     0.00000000    0.00000000   -0.00011230
     The non-local contrib.  to forces
     atom    1 type  1   force =    -0.00000039    0.00000006   -0.03317914
     atom    2 type  1   force =     0.00000000    0.00000000    0.00087027
     atom    3 type  1   force =    -0.00000031    0.00000007   -0.00087009
     atom    4 type  1   force =     0.00000000    0.00000000    0.03317656
     atom    5 type  1   force =    -0.00000018   -0.00000018   -0.03317614
     atom    6 type  1   force =     0.00000000    0.00000000    0.00087033
     atom    7 type  1   force =     0.00000040   -0.00000045   -0.00087079
     atom    8 type  1   force =     0.00000000    0.00000000    0.03317793
     atom    9 type  1   force =     0.00000018    0.00000018   -0.03317614
     atom   10 type  1   force =     0.00000000    0.00000000    0.00087011
     atom   11 type  1   force =    -0.00000040    0.00000045   -0.00087079
     atom   12 type  1   force =     0.00000000    0.00000000    0.03318029
     atom   13 type  1   force =     0.00000039   -0.00000006   -0.03317914
     atom   14 type  1   force =     0.00000000    0.00000000    0.00087128
     atom   15 type  1   force =     0.00000031   -0.00000007   -0.00087009
     atom   16 type  1   force =     0.00000000    0.00000000    0.03317546
     The ionic contribution  to forces
     atom    1 type  1   force =    -0.00000257   -0.00000129   -8.99842429
     atom    2 type  1   force =    -0.00000006   -0.00000006   -3.01411121
     atom    3 type  1   force =     0.00000147   -0.00000144    3.01395161
     atom    4 type  1   force =    -0.00000005   -0.00000011    8.99831416
     atom    5 type  1   force =    -0.00000433   -0.00000154   -8.99829617
     atom    6 type  1   force =     0.00000006    0.00000007   -3.01392176
     atom    7 type  1   force =    -0.00000319    0.00000313    3.01412624
     atom    8 type  1   force =     0.00000004    0.00000012    8.99838513
     atom    9 type  1   force =     0.00000430    0.00000152   -8.99829597
     atom   10 type  1   force =    -0.00000001   -0.00000005   -3.01399086
     atom   11 type  1   force =     0.00000314   -0.00000315    3.01412632
     atom   12 type  1   force =    -0.00000001   -0.00000011    8.99847101
     atom   13 type  1   force =     0.00000255    0.00000128   -8.99842445
     atom   14 type  1   force =     0.00000010    0.00000009   -3.01413101
     atom   15 type  1   force =    -0.00000152    0.00000141    3.01395151
     atom   16 type  1   force =     0.00000007    0.00000013    8.99826974
     The local contribution  to forces
     atom    1 type  1   force =     0.00005853   -0.00000943    8.96901914
     atom    2 type  1   force =     0.00005792   -0.00002188    2.99115250
     atom    3 type  1   force =     0.00005493   -0.00000850   -2.99099393
     atom    4 type  1   force =     0.00005736   -0.00002303   -8.96890651
     atom    5 type  1   force =     0.00005986   -0.00000886    8.96888928
     atom    6 type  1   force =     0.00010288   -0.00001645    2.99096385
     atom    7 type  1   force =     0.00005840   -0.00001200   -2.99116607
     atom    8 type  1   force =     0.00010409   -0.00001409   -8.96897763
     atom    9 type  1   force =     0.00005138   -0.00001220    8.96888565
     atom   10 type  1   force =     0.00005868   -0.00002129    2.99103296
     atom   11 type  1   force =     0.00005338   -0.00000735   -2.99116728
     atom   12 type  1   force =     0.00005812   -0.00002245   -8.96906884
     atom   13 type  1   force =     0.00005271   -0.00001163    8.96902096
     atom   14 type  1   force =     0.00010364   -0.00001586    2.99117159
     atom   15 type  1   force =     0.00005685   -0.00001085   -2.99099211
     atom   16 type  1   force =     0.00010485   -0.00001293   -8.96885890
     The core correction contribution to forces
     atom    1 type  1   force =     0.00000000    0.00000000    0.00000000
     atom    2 type  1   force =     0.00000000    0.00000000    0.00000000
     atom    3 type  1   force =     0.00000000    0.00000000    0.00000000
     atom    4 type  1   force =     0.00000000    0.00000000    0.00000000
     atom    5 type  1   force =     0.00000000    0.00000000    0.00000000
     atom    6 type  1   force =     0.00000000    0.00000000    0.00000000
     atom    7 type  1   force =     0.00000000    0.00000000    0.00000000
     atom    8 type  1   force =     0.00000000    0.00000000    0.00000000
     atom    9 type  1   force =     0.00000000    0.00000000    0.00000000
     atom   10 type  1   force =     0.00000000    0.00000000    0.00000000
     atom   11 type  1   force =     0.00000000    0.00000000    0.00000000
     atom   12 type  1   force =     0.00000000    0.00000000    0.00000000
     atom   13 type  1   force =     0.00000000    0.00000000    0.00000000
     atom   14 type  1   force =     0.00000000    0.00000000    0.00000000
     atom   15 type  1   force =     0.00000000    0.00000000    0.00000000
     atom   16 type  1   force =     0.00000000    0.00000000    0.00000000
     The Hubbard contrib.    to forces
     atom    1 type  1   force =     0.00000000    0.00000000    0.00000000
     atom    2 type  1   force =     0.00000000    0.00000000    0.00000000
     atom    3 type  1   force =     0.00000000    0.00000000    0.00000000
     atom    4 type  1   force =     0.00000000    0.00000000    0.00000000
     atom    5 type  1   force =     0.00000000    0.00000000    0.00000000
     atom    6 type  1   force =     0.00000000    0.00000000    0.00000000
     atom    7 type  1   force =     0.00000000    0.00000000    0.00000000
     atom    8 type  1   force =     0.00000000    0.00000000    0.00000000
     atom    9 type  1   force =     0.00000000    0.00000000    0.00000000
     atom   10 type  1   force =     0.00000000    0.00000000    0.00000000
     atom   11 type  1   force =     0.00000000    0.00000000    0.00000000
     atom   12 type  1   force =     0.00000000    0.00000000    0.00000000
     atom   13 type  1   force =     0.00000000    0.00000000    0.00000000
     atom   14 type  1   force =     0.00000000    0.00000000    0.00000000
     atom   15 type  1   force =     0.00000000    0.00000000    0.00000000
     atom   16 type  1   force =     0.00000000    0.00000000    0.00000000
     The SCF correction term to forces
     atom    1 type  1   force =     0.00000000    0.00000000    0.00000091
     atom    2 type  1   force =     0.00000000    0.00000000    0.00000155
     atom    3 type  1   force =     0.00000000   -0.00000000   -0.00000147
     atom    4 type  1   force =     0.00000000    0.00000000   -0.00000079
     atom    5 type  1   force =     0.00000000    0.00000000    0.00000088
     atom    6 type  1   force =    -0.00000000   -0.00000000    0.00000156
     atom    7 type  1   force =    -0.00000000   -0.00000000   -0.00000147
     atom    8 type  1   force =    -0.00000000   -0.00000000   -0.00000083
     atom    9 type  1   force =    -0.00000000   -0.00000000    0.00000088
     atom   10 type  1   force =    -0.00000000    0.00000000    0.00000155
     atom   11 type  1   force =     0.00000000    0.00000000   -0.00000147
     atom   12 type  1   force =    -0.00000000    0.00000000   -0.00000082
     atom   13 type  1   force =    -0.00000000   -0.00000000    0.00000091
     atom   14 type  1   force =     0.00000000    0.00000000    0.00000156
     atom   15 type  1   force =    -0.00000000    0.00000000   -0.00000147
     atom   16 type  1   force =     0.00000000    0.00000000   -0.00000081

     Total force =     0.000479     Total SCF correction =     0.000005
     Energy error            =      8.2E-06 Ry
     Gradient error          =      1.3E-04 Ry/Bohr

     bfgs converged in  20 scf cycles and  19 bfgs steps
     (criteria: energy <  1.0E-05 Ry, force <  3.9E-04 Ry/Bohr)

     End of BFGS Geometry Optimization

     Final energy             =    -240.5678641710 Ry

     File ./Li/Lithium.bfgs deleted, as requested
Begin final coordinates

ATOMIC_POSITIONS (angstrom)
Li               0.9916331848        1.4024069297       19.9401151504
Li               1.9832882700        2.8047934300       22.3459975061
Li               0.9916432348        1.4023887489       24.7839286437
Li               1.9832882800        2.8047934500       27.1898290318
Li               0.0000127753        4.2072038830       19.9401762499
Li               0.9916443500        5.6095863900       22.3460752768
Li               0.0000031707        4.2071682679       24.7840026703
Li               0.9916443300        5.6095863500       27.1898568408
Li               3.9665638447        1.4023825870       19.9401763099
Li               4.9582206700        2.8047934200       22.3460469914
Li               3.9665734393        1.4024181721       24.7840026903
Li               4.9582206800        2.8047934400       27.1899035667
Li               2.9749434352        4.2071795403       19.9401151204
Li               3.9665767500        5.6095863800       22.3459876405
Li               2.9749333752        4.2071976911       24.7839286137
Li               3.9665767300        5.6095863300       27.1898017542
End final coordinates

     Writing all to output data dir ./Li/Lithium.save/ :
     XML data file

     General routines

     Parallel routines

     PAW routines

     Environ routines

   This run was terminated on:  22:51:46   2Jan2025

   JOB DONE.