     Program PWSCF v.7.4 starts on  6Jan2025 at 12:38:18
        Git branch: develop
        Last git commit: e877ff360aceba4b8d76ffc2fb1c70545fc5dd57
        Last git commit date: Sat Jan 4 12:56:15 2025 +0000
        Last git commit subject: Merge branch 'orthoU' into 'develop'

     Reading input from espresso.pwi
Warning: card &CELL ignored
Warning: card    PRESS_CONV_THR   = 0.1 ignored
Warning: card    CELL_DOFREE      = 'ALL' ignored
Warning: card / ignored
Warning: card &FCP ignored
Warning: card / ignored
Warning: card &RISM ignored
Warning: card / ignored

     Current dimensions of program PWSCF are:
     Max number of different atomic species (ntypx) = 10
     Max number of k-points (npk) =  40000
     Max angular momentum in pseudopotentials (lmaxx) =  4

     IMPORTANT: XC functional enforced from input :
     Exchange-correlation= PBE
                           (   1   4   3   4   0   0   0)
     Any further DFT definition will be discarded
     Please, verify this is what you really want

     Reading input from environ.in:
     * using ionic solvent mode
     * setting boundary derivatives method to SSCS default
     * setting electrolyte-boundary derivatives method to SSCS default

Environ Warning (1001): card EOF ignored

     K-points division:     npool     =       2
     R & G space division:  proc/nbgrp/npool/nimage =     180
     Subspace diagonalization in iterative solution of the eigenvalue problem:
     a serial algorithm will be used

     Using Slab Decomposition

     bravais-lattice index     =           14
     lattice parameter (alat)  =      11.2436  a.u.
     unit-cell volume          =   10615.2838 (a.u.)^3
     number of atoms/cell      =           16
     number of atomic types    =            1
     number of electrons       =        48.00
     number of Kohn-Sham states=           36
     kinetic-energy cutoff     =      80.0000  Ry
     charge density cutoff     =     800.0000  Ry
     scf convergence threshold =      1.0E-06
     mixing beta               =       0.2000
     number of iterations used =            8  local-TF  mixing
     energy convergence thresh.=      1.0E-05
     force convergence thresh. =      3.9E-04
     Exchange-correlation= PBE
                           (   1   4   3   4   0   0   0)
     nstep                     =          999

                                  Environ Setup Summary

          O. Andreussi, I. Dabo and N. Marzari, J. Chem. Phys. 136, 064102 (2012)
          F. Nattino, M. Truscott, N. Marzari, and O. Andreussi, J. Chem. Phys. 150, 041722 (2019)

     in publications or presentations arising from this work.

     Parameters

     compensation onset threshold      =               0.1000E+00
     static permittivity               =                    89.90
     surface tension in input (dyn/cm) =                    37.30
     surface tension in internal units =               0.4792E-04

     Solvent Boundary

     solvent mode                      =                    ionic
     derivatives method                =                   lowmem
     electrolyte derivatives method    =                   lowmem
     numerical core for derivatives    =                      fft
     switching function adopted        =                     SCCS
     density limit for vacuum region   =               0.5000E-02
     density limit for bulk solvent    =               0.1000E-03
     soft-sphere radius mode           =                    bondi
     soft-sphere softness              =                     0.50
     alpha                             =                     1.32

     Electrostatic Setup

     electrostatic problem to solve    =                    modpb
     numerical solver adopted          =                   newton
     type of auxiliary density adopted =                     none
     numerical core for poisson        =                      fft
     adopting a nested solver scheme
     inner solver                      =                       cg
     inner core                        =                      fft
     type of pbc corrections           =                parabolic
     numerical core for corrections    =                      1da

     >>>>> Grand-Canonical SCF is activated <<<<<
     Initial Total Charge  =     0.000000 e
     Target Fermi Energy   =    -4.404000 eV
     Thr. of Fermi Energy  =     0.001000 eV
     Wave-shift of Kerker  =     0.400000 bohr^-1
     Wave-shift of Hartree =     1.500000 bohr^-1
     Mixing Rate of Fermi  =     0.050000

     celldm(1)=  11.243615  celldm(2)=   1.000000  celldm(3)=   7.921182
     celldm(4)=   0.000000  celldm(5)=   0.000000  celldm(6)=  -0.333333

     crystal axes: (cart. coord. in units of alat)
               a(1) = (   1.000000   0.000000   0.000000 )
               a(2) = (  -0.333333   0.942809   0.000000 )
               a(3) = (   0.000000   0.000000   7.921182 )

     reciprocal axes: (cart. coord. in units 2 pi/alat)
               b(1) = (  1.000000  0.353553  0.000000 )
               b(2) = (  0.000000  1.060660  0.000000 )
               b(3) = (  0.000000  0.000000  0.126244 )

     PseudoPot. # 1 for Li read from file:
     /home/mmm1182/Repos/Pseudopotentials/pslibrary/Li.pbe-sl-kjpaw_psl.1.0.0.UPF
     MD5 check sum: f40bb4162937df3f7c561f1969c76545
     Pseudo is Projector augmented-wave, Zval =  3.0
     Generated using 'atomic' code by A. Dal Corso  v.7.3.1
     Shape of augmentation charge: PSQ
     Using radial grid of 1017 points,  4 beta functions with:
                l(1) =   0
                l(2) =   0
                l(3) =   1
                l(4) =   1
     Q(r) pseudized with 0 coefficients

     atomic species   valence    mass     pseudopotential
     Li                3.00     6.94000     Li( 1.00)

      2 Sym. Ops. (no inversion) found

                                    s                        frac. trans.

      isym =  1     identity

 cryst.   s( 1) = (     1          0          0      )
                  (     0          1          0      )
                  (     0          0          1      )

 cart.    s( 1) = (  1.0000000 -0.0000000  0.0000000 )
                  (  0.0000000  1.0000000  0.0000000 )
                  (  0.0000000  0.0000000  1.0000000 )

      isym =  2     180 deg rotation - cart. axis [0,0,1]

 cryst.   s( 2) = (    -1          0          0      )
                  (     0         -1          0      )
                  (     0          0          1      )

 cart.    s( 2) = ( -1.0000000  0.0000000  0.0000000 )
                  (  0.0000000 -1.0000000  0.0000000 )
                  (  0.0000000  0.0000000  1.0000000 )

     point group C_2  (2)
     there are  2 classes
     the character table:

       E     C2
A      1.00  1.00
B      1.00 -1.00

     the symmetry operations in each class and the name of the first element:

     E        1
          identity
     C2       2
          180 deg rotation - cart. axis [0,0,1]

   Cartesian axes

     site n.     atom                  positions (alat units)
         1        Li     tau(   1) = (   0.1666613   0.2357035   3.3631858  )
         2        Li     tau(   2) = (   0.3333333   0.4714046   3.7544710  )
         3        Li     tau(   3) = (   0.1666694   0.2356973   4.1667070  )
         4        Li     tau(   4) = (   0.3333333   0.4714046   4.5579745  )
         5        Li     tau(   5) = (   0.0000047   0.7071098   3.3632112  )
         6        Li     tau(   6) = (   0.1666667   0.9428090   3.7544879  )
         7        Li     tau(   7) = (  -0.0000025   0.7071025   4.1667157  )
         8        Li     tau(   8) = (   0.1666667   0.9428090   4.5579921  )
         9        Li     tau(   9) = (   0.6666620   0.2356992   3.3632112  )
        10        Li     tau(  10) = (   0.8333333   0.4714046   3.7544828  )
        11        Li     tau(  11) = (   0.6666692   0.2357065   4.1667157  )
        12        Li     tau(  12) = (   0.8333333   0.4714046   4.5579940  )
        13        Li     tau(  13) = (   0.5000054   0.7071055   3.3631858  )
        14        Li     tau(  14) = (   0.6666667   0.9428090   3.7544707  )
        15        Li     tau(  15) = (   0.4999973   0.7071118   4.1667070  )
        16        Li     tau(  16) = (   0.6666667   0.9428090   4.5579851  )

   Crystallographic axes

     site n.     atom                  positions (cryst. coord.)
         1        Li     tau(   1) = (  0.2499950  0.2500013  0.4245813  )
         2        Li     tau(   2) = (  0.4999999  0.5000001  0.4739786  )
         3        Li     tau(   3) = (  0.2500009  0.2499947  0.5260209  )
         4        Li     tau(   4) = (  0.4999999  0.5000001  0.5754160  )
         5        Li     tau(   5) = (  0.2500055  0.7500033  0.4245845  )
         6        Li     tau(   6) = (  0.4999997  1.0000001  0.4739808  )
         7        Li     tau(   7) = (  0.2499957  0.7499955  0.5260220  )
         8        Li     tau(   8) = (  0.4999997  1.0000000  0.5754182  )
         9        Li     tau(   9) = (  0.7499942  0.2499968  0.4245845  )
        10        Li     tau(  10) = (  0.9999999  0.5000001  0.4739801  )
        11        Li     tau(  11) = (  0.7500040  0.2500045  0.5260220  )
        12        Li     tau(  12) = (  0.9999999  0.5000001  0.5754184  )
        13        Li     tau(  13) = (  0.7500047  0.7499987  0.4245813  )
        14        Li     tau(  14) = (  0.9999997  1.0000000  0.4739786  )
        15        Li     tau(  15) = (  0.7499988  0.7500054  0.5260209  )
        16        Li     tau(  16) = (  0.9999997  1.0000000  0.5754173  )

     number of k points=    61  Marzari-Vanderbilt smearing, width (Ry)=  0.0100
                       cart. coord. in units 2pi/alat
        k(    1) = (   0.0000000   0.0000000   0.0000000), wk =   0.0165289
        k(    2) = (   0.0000000   0.0964237   0.0000000), wk =   0.0330579
        k(    3) = (   0.0000000   0.1928473   0.0000000), wk =   0.0330579
        k(    4) = (   0.0000000   0.2892710   0.0000000), wk =   0.0330579
        k(    5) = (   0.0000000   0.3856946   0.0000000), wk =   0.0330579
        k(    6) = (   0.0000000   0.4821183   0.0000000), wk =   0.0330579
        k(    7) = (   0.0909091   0.0321412   0.0000000), wk =   0.0330579
        k(    8) = (   0.0909091   0.1285648   0.0000000), wk =   0.0330579
        k(    9) = (   0.0909091   0.2249885   0.0000000), wk =   0.0330579
        k(   10) = (   0.0909091   0.3214122   0.0000000), wk =   0.0330579
        k(   11) = (   0.0909091   0.4178358   0.0000000), wk =   0.0330579
        k(   12) = (   0.0909091   0.5142595   0.0000000), wk =   0.0330579
        k(   13) = (   0.0909091  -0.4499771   0.0000000), wk =   0.0330579
        k(   14) = (   0.0909091  -0.3535534   0.0000000), wk =   0.0330579
        k(   15) = (   0.0909091  -0.2571298   0.0000000), wk =   0.0330579
        k(   16) = (   0.0909091  -0.1607061   0.0000000), wk =   0.0330579
        k(   17) = (   0.0909091  -0.0642825   0.0000000), wk =   0.0330579
        k(   18) = (   0.1818182   0.0642824   0.0000000), wk =   0.0330579
        k(   19) = (   0.1818182   0.1607060   0.0000000), wk =   0.0330579
[...]
     number of bfgs steps    =  16

     energy             old  =    -240.6649140628 Ry
     energy             new  =    -240.6649212314 Ry

     CASE: energy            _new < energy            _old

     new trust radius        =       0.0035210748 bohr
     new conv_thr            =            1.0E-12 Ry

ATOMIC_POSITIONS (angstrom)
Li               0.9916243401        1.4024021101       19.9743621015
Li               1.9832882700        2.8047934300       22.3252321855
Li               0.9916489799        1.4023791596       24.8047401703
Li               1.9832882800        2.8047934500       27.1554219372
Li               0.0000167510        4.2072024201       19.9745268804
Li               0.9916443500        5.6095863900       22.3253382956
Li              -0.0000023106        4.2071689778       24.8048170396
Li               0.9916443300        5.6095863500       27.1555200234
Li               3.9665598690        1.4023840499       19.9745269404
Li               4.9582206700        2.8047934200       22.3253195208
Li               3.9665789206        1.4024174622       24.8048170596
Li               4.9582206800        2.8047934400       27.1555464683
Li               2.9749522799        4.2071843599       19.9743620715
Li               3.9665767500        5.6095863800       22.3252215176
Li               2.9749276301        4.2072072804       24.8047401403
Li               3.9665767300        5.6095863300       27.1554517046

     Writing config-only to output data dir ./Li/Lithium.save/ :
     XML data file     NEW-OLD atomic charge density approx. for the potential

[...]

     Self-consistent Calculation

[...]

     Threshold (ethr) on eigenvalues was too large:
     Diagonalizing with lowered threshold

     Davidson diagonalization with overlap

[...]

     add environment contribution to local potential

     total energy              =    -240.66492949 Ry
     estimated scf accuracy    <          1.9E-12 Ry

     total charge of GC-SCF    =       1.49702290 e
     the Fermi energy          =      -4.40394721 eV
                        (error :       0.00005279 eV)
     electrostatic embedding   =      -0.70680455 Ry
     cavitation energy         =       0.01235683 Ry
     electrolyte free energy   =      -0.00989217 Ry
     correction to one-el term =     -42.72409786 Ry

     iteration # 13     ecut=    80.00 Ry     beta= 0.20
     Davidson diagonalization with overlap

     ethr =  1.00E-13,  avg # of iterations =  5.0

     negative rho (up, down):  2.639E-04 0.000E+00

     End of self-consistent calculation

[...]

          k = 0.4545 0.0643 0.0000 (128255 PWs)   bands (ev):

   -51.5810 -51.5810 -51.5793 -51.5792 -51.5728 -51.5727 -51.5723 -51.5722
   -50.8652 -50.8625 -50.8585 -50.8577 -50.8554 -50.8548 -50.8521 -50.8504
    -7.0974  -6.5585  -6.4684  -5.9454  -5.1536  -4.9659  -4.6554  -4.3461
    -4.0115  -3.5440  -3.1415  -3.1013  -3.0531  -3.0200  -2.7919  -2.2389
    -1.6353  -1.5674  -0.7189  -0.4668

     occupation numbers
     1.0000   1.0000   1.0000   1.0000   1.0000   1.0000   1.0000   1.0000
     1.0000   1.0000   1.0000   1.0000   1.0000   1.0000   1.0000   1.0000
     1.0000   1.0000   1.0000   1.0000   1.0000   1.0000   1.0552   0.1653
     0.0000   0.0000   0.0000   0.0000   0.0000   0.0000   0.0000   0.0000
     0.0000   0.0000   0.0000   0.0000

     the Fermi energy is    -4.4040 ev

!    total energy              =    -240.66492944 Ry
     total all-electron energy =      -240.665059 Ry
     estimated scf accuracy    <          4.4E-13 Ry

!    total charge of GC-SCF    =       1.49703282 e
     smearing contrib. (-TS)   =       0.00058507 Ry
     internal energy E=F+TS    =    -240.66551451 Ry

     The total energy is F=E-TS. E is the sum of the following terms:
     one-electron contribution =   -2384.61867708 Ry
     hartree contribution      =    1163.19496358 Ry
     xc contribution           =     -56.86201604 Ry
     ewald contribution        =    1080.12176460 Ry
     one-center paw contrib.   =       1.41181380 Ry
      -> PAW hartree energy AE =       7.35162353 Ry
      -> PAW hartree energy PS =      -7.12889281 Ry
      -> PAW xc energy AE      =      -3.47284174 Ry
      -> PAW xc energy PS      =       3.33833961 Ry
      -> total E_H with PAW    =    1163.41769430 Ry
      -> total E_XC with PAW   =     -56.99651817 Ry
     pot.stat. contrib. (-muN) =      -0.48457160 Ry
     electrostatic embedding   =      -0.70681641 Ry
     cavitation energy         =       0.01235683 Ry
     electrolyte free energy   =      -0.00989232 Ry
     correction to one-el term =     -42.72443985 Ry

     WARNING: you are using the parabolic pbc correction;
              the potential shift above must be added to
              band and Fermi energies.

     convergence has been achieved in  13 iterations
     The dielectric solvent contribution to forces
     atom    1 type  1   force =     0.00000001    0.00000014   -0.04709424
     atom    2 type  1   force =    -0.00000000   -0.00000000   -0.02276557
     atom    3 type  1   force =     0.00000003    0.00000001    0.02276044
     atom    4 type  1   force =     0.00000000    0.00000001    0.04709444
     atom    5 type  1   force =    -0.00000001   -0.00000015   -0.04709983
     atom    6 type  1   force =     0.00000000   -0.00000000   -0.02276384
     atom    7 type  1   force =     0.00000003    0.00000002    0.02276171
     atom    8 type  1   force =     0.00000000   -0.00000001    0.04709113
     atom    9 type  1   force =     0.00000001    0.00000015   -0.04709983
     atom   10 type  1   force =     0.00000000    0.00000000   -0.02276424
     atom   11 type  1   force =    -0.00000003   -0.00000002    0.02276171
     atom   12 type  1   force =    -0.00000000    0.00000001    0.04709027
     atom   13 type  1   force =    -0.00000002   -0.00000014   -0.04709425
     atom   14 type  1   force =     0.00000000    0.00000000   -0.02276572
     atom   15 type  1   force =    -0.00000003   -0.00000001    0.02276045
     atom   16 type  1   force =    -0.00000000   -0.00000001    0.04709347

     Forces acting on atoms (cartesian axes, Ry/au):

     atom    1 type  1   force =     0.00000020    0.00000005   -0.00031015
     atom    2 type  1   force =     0.00000000    0.00000000   -0.00027125
     atom    3 type  1   force =    -0.00000013   -0.00000006    0.00026622
     atom    4 type  1   force =     0.00000000    0.00000000    0.00031425
     atom    5 type  1   force =    -0.00000014   -0.00000012   -0.00030967
     atom    6 type  1   force =     0.00000000    0.00000000   -0.00027074
     atom    7 type  1   force =    -0.00000006    0.00000013    0.00026642
     atom    8 type  1   force =     0.00000000    0.00000000    0.00031479
     atom    9 type  1   force =     0.00000014    0.00000012   -0.00030967
     atom   10 type  1   force =     0.00000000    0.00000000   -0.00027062
     atom   11 type  1   force =     0.00000006   -0.00000013    0.00026642
     atom   12 type  1   force =     0.00000000    0.00000000    0.00031477
     atom   13 type  1   force =    -0.00000020   -0.00000005   -0.00031015
     atom   14 type  1   force =     0.00000000    0.00000000   -0.00027079
     atom   15 type  1   force =     0.00000013    0.00000006    0.00026622
     atom   16 type  1   force =     0.00000000    0.00000000    0.00031393
     The non-local contrib.  to forces
     atom    1 type  1   force =    -0.00000001    0.00000076   -0.08756990
     atom    2 type  1   force =     0.00000000    0.00000000    0.00389408
     atom    3 type  1   force =     0.00000007   -0.00000036   -0.00389840
     atom    4 type  1   force =     0.00000000    0.00000000    0.08756573
     atom    5 type  1   force =     0.00000042   -0.00000053   -0.08756232
     atom    6 type  1   force =     0.00000000    0.00000000    0.00389105
     atom    7 type  1   force =    -0.00000012   -0.00000006   -0.00389997
     atom    8 type  1   force =     0.00000000    0.00000000    0.08757074
     atom    9 type  1   force =    -0.00000042    0.00000053   -0.08756232
     atom   10 type  1   force =     0.00000000    0.00000000    0.00389204
     atom   11 type  1   force =     0.00000012    0.00000006   -0.00389997
     atom   12 type  1   force =     0.00000000    0.00000000    0.08757178
     atom   13 type  1   force =     0.00000001   -0.00000076   -0.08756990
     atom   14 type  1   force =     0.00000000    0.00000000    0.00389437
     atom   15 type  1   force =    -0.00000007    0.00000036   -0.00389840
     atom   16 type  1   force =     0.00000000    0.00000000    0.08756677
     The ionic contribution  to forces
     atom    1 type  1   force =     0.00000385    0.00000481   -9.01405316
     atom    2 type  1   force =    -0.00000006   -0.00000006   -3.01157875
     atom    3 type  1   force =    -0.00000261   -0.00000206    3.01133484
     atom    4 type  1   force =    -0.00000005   -0.00000011    9.01379031
     atom    5 type  1   force =     0.00000034   -0.00000425   -9.01372741
     atom    6 type  1   force =     0.00000006    0.00000007   -3.01130540
     atom    7 type  1   force =    -0.00000163    0.00000301    3.01153379
     atom    8 type  1   force =     0.00000004    0.00000012    9.01398716
     atom    9 type  1   force =    -0.00000037    0.00000423   -9.01372721
     atom   10 type  1   force =    -0.00000001   -0.00000005   -3.01135563
     atom   11 type  1   force =     0.00000159   -0.00000304    3.01153388
     atom   12 type  1   force =    -0.00000001   -0.00000011    9.01403976
     atom   13 type  1   force =    -0.00000387   -0.00000482   -9.01405333
     atom   14 type  1   force =     0.00000011    0.00000009   -3.01159723
     atom   15 type  1   force =     0.00000256    0.00000203    3.01133473
     atom   16 type  1   force =     0.00000007    0.00000013    9.01384362
     The local contribution  to forces
     atom    1 type  1   force =     0.00005194   -0.00001620    9.14840410
     atom    2 type  1   force =     0.00005791   -0.00002187    3.03018837
     atom    3 type  1   force =     0.00005822   -0.00000737   -3.02994081
     atom    4 type  1   force =     0.00005734   -0.00002302   -9.14813402
     atom    5 type  1   force =     0.00005469   -0.00000571    9.14807940
     atom    6 type  1   force =     0.00010286   -0.00001644    3.02991684
     atom    7 type  1   force =     0.00005751   -0.00001252   -3.03013783
     atom    8 type  1   force =     0.00010405   -0.00001409   -9.14833201
     atom    9 type  1   force =     0.00005651   -0.00001535    9.14807577
     atom   10 type  1   force =     0.00005867   -0.00002129    3.02996658
     atom   11 type  1   force =     0.00005425   -0.00000683   -3.03013904
     atom   12 type  1   force =     0.00005810   -0.00002244   -9.14838477
     atom   13 type  1   force =     0.00005926   -0.00000486    9.14840592
     atom   14 type  1   force =     0.00010362   -0.00001586    3.03020718
     atom   15 type  1   force =     0.00005353   -0.00001198   -3.02993899
     atom   16 type  1   force =     0.00010481   -0.00001293   -9.14818776
     The core correction contribution to forces
     atom    1 type  1   force =     0.00000000    0.00000000    0.00000000
     atom    2 type  1   force =     0.00000000    0.00000000    0.00000000
     atom    3 type  1   force =     0.00000000    0.00000000    0.00000000
     atom    4 type  1   force =     0.00000000    0.00000000    0.00000000
     atom    5 type  1   force =     0.00000000    0.00000000    0.00000000
     atom    6 type  1   force =     0.00000000    0.00000000    0.00000000
     atom    7 type  1   force =     0.00000000    0.00000000    0.00000000
     atom    8 type  1   force =     0.00000000    0.00000000    0.00000000
     atom    9 type  1   force =     0.00000000    0.00000000    0.00000000
     atom   10 type  1   force =     0.00000000    0.00000000    0.00000000
     atom   11 type  1   force =     0.00000000    0.00000000    0.00000000
     atom   12 type  1   force =     0.00000000    0.00000000    0.00000000
     atom   13 type  1   force =     0.00000000    0.00000000    0.00000000
     atom   14 type  1   force =     0.00000000    0.00000000    0.00000000
     atom   15 type  1   force =     0.00000000    0.00000000    0.00000000
     atom   16 type  1   force =     0.00000000    0.00000000    0.00000000
     The Hubbard contrib.    to forces
     atom    1 type  1   force =     0.00000000    0.00000000    0.00000000
     atom    2 type  1   force =     0.00000000    0.00000000    0.00000000
     atom    3 type  1   force =     0.00000000    0.00000000    0.00000000
     atom    4 type  1   force =     0.00000000    0.00000000    0.00000000
     atom    5 type  1   force =     0.00000000    0.00000000    0.00000000
     atom    6 type  1   force =     0.00000000    0.00000000    0.00000000
     atom    7 type  1   force =     0.00000000    0.00000000    0.00000000
     atom    8 type  1   force =     0.00000000    0.00000000    0.00000000
     atom    9 type  1   force =     0.00000000    0.00000000    0.00000000
     atom   10 type  1   force =     0.00000000    0.00000000    0.00000000
     atom   11 type  1   force =     0.00000000    0.00000000    0.00000000
     atom   12 type  1   force =     0.00000000    0.00000000    0.00000000
     atom   13 type  1   force =     0.00000000    0.00000000    0.00000000
     atom   14 type  1   force =     0.00000000    0.00000000    0.00000000
     atom   15 type  1   force =     0.00000000    0.00000000    0.00000000
     atom   16 type  1   force =     0.00000000    0.00000000    0.00000000
     The SCF correction term to forces
     atom    1 type  1   force =    -0.00000000    0.00000000    0.00000217
     atom    2 type  1   force =    -0.00000000   -0.00000000   -0.00000944
     atom    3 type  1   force =     0.00000002    0.00000002    0.00000923
     atom    4 type  1   force =    -0.00000000   -0.00000000   -0.00000227
     atom    5 type  1   force =    -0.00000000   -0.00000001    0.00000215
     atom    6 type  1   force =     0.00000000   -0.00000000   -0.00000944
     atom    7 type  1   force =     0.00000002   -0.00000001    0.00000923
     atom    8 type  1   force =     0.00000000   -0.00000000   -0.00000228
     atom    9 type  1   force =     0.00000000    0.00000001    0.00000215
     atom   10 type  1   force =     0.00000000   -0.00000000   -0.00000943
     atom   11 type  1   force =    -0.00000002    0.00000001    0.00000923
     atom   12 type  1   force =     0.00000000   -0.00000000   -0.00000232
     atom   13 type  1   force =     0.00000000   -0.00000000    0.00000217
     atom   14 type  1   force =     0.00000000   -0.00000000   -0.00000945
     atom   15 type  1   force =    -0.00000002   -0.00000002    0.00000923
     atom   16 type  1   force =     0.00000000   -0.00000000   -0.00000223

     Total force =     0.001165     Total SCF correction =     0.000027
     Energy error            =      8.2E-06 Ry
     Gradient error          =      3.1E-04 Ry/Bohr

     bfgs converged in  25 scf cycles and  17 bfgs steps
     (criteria: energy <  1.0E-05 Ry, force <  3.9E-04 Ry/Bohr)

     End of BFGS Geometry Optimization

     Final energy             =    -240.6649294352 Ry

     File ./Li/Lithium.bfgs deleted, as requested
Begin final coordinates

ATOMIC_POSITIONS (angstrom)
Li               0.9916243401        1.4024021101       19.9743621015
Li               1.9832882700        2.8047934300       22.3252321855
Li               0.9916489799        1.4023791596       24.8047401703
Li               1.9832882800        2.8047934500       27.1554219372
Li               0.0000167510        4.2072024201       19.9745268804
Li               0.9916443500        5.6095863900       22.3253382956
Li              -0.0000023106        4.2071689778       24.8048170396
Li               0.9916443300        5.6095863500       27.1555200234
Li               3.9665598690        1.4023840499       19.9745269404
Li               4.9582206700        2.8047934200       22.3253195208
Li               3.9665789206        1.4024174622       24.8048170596
Li               4.9582206800        2.8047934400       27.1555464683
Li               2.9749522799        4.2071843599       19.9743620715
Li               3.9665767500        5.6095863800       22.3252215176
Li               2.9749276301        4.2072072804       24.8047401403
Li               3.9665767300        5.6095863300       27.1554517046
End final coordinates

     Writing all to output data dir ./Li/Lithium.save/ :
     XML data file

     General routines

     Parallel routines

     PAW routines

     Environ routines

   This run was terminated on:  13:32:21   6Jan2025

   JOB DONE.