     Program PWSCF v.7.4 starts on 28Dec2024 at 11:23:19

     Reading input from espresso.pwi
Warning: card &CELL ignored
Warning: card    PRESS_CONV_THR   = 0.1 ignored
Warning: card    CELL_DOFREE      = 'ALL' ignored
Warning: card / ignored
Warning: card &FCP ignored
Warning: card / ignored
Warning: card &RISM ignored
Warning: card / ignored

     Current dimensions of program PWSCF are:
     Max number of different atomic species (ntypx) = 10
     Max number of k-points (npk) =  40000
     Max angular momentum in pseudopotentials (lmaxx) =  4

     IMPORTANT: XC functional enforced from input :
     Exchange-correlation= PBE
                           (   1   4   3   4   0   0   0)
     Any further DFT definition will be discarded
     Please, verify this is what you really want

     Reading input from environ.in:
     * using ionic solvent mode
     * setting boundary derivatives method to SSCS default
     * setting electrolyte-boundary derivatives method to SSCS default

Environ Warning (1001): card EOF ignored

     R & G space division:  proc/nbgrp/npool/nimage =     192
     Subspace diagonalization in iterative solution of the eigenvalue problem:
     one sub-group per band group will be used

     Using Slab Decomposition

     bravais-lattice index     =           12
     lattice parameter (alat)  =      18.3607  a.u.
     unit-cell volume          =   35212.2539 (a.u.)^3
     number of atoms/cell      =           68
     number of atomic types    =            1
     number of electrons       =       204.00
     number of Kohn-Sham states=          153
     kinetic-energy cutoff     =      80.0000  Ry
     charge density cutoff     =     800.0000  Ry
     scf convergence threshold =      1.0E-14
     mixing beta               =       0.2000
     number of iterations used =            8  local-TF  mixing
     Exchange-correlation= PBE
                           (   1   4   3   4   0   0   0)

                                  Environ Setup Summary

          O. Andreussi, I. Dabo and N. Marzari, J. Chem. Phys. 136, 064102 (2012)
          F. Nattino, M. Truscott, N. Marzari, and O. Andreussi, J. Chem. Phys. 150, 041722 (2019)

     in publications or presentations arising from this work.

     Parameters

     compensation onset threshold      =               0.1000E+00
     static permittivity               =                    89.90
     surface tension in input (dyn/cm) =                    37.30
     surface tension in internal units =               0.4792E-04

     Solvent Boundary

     solvent mode                      =                    ionic
     derivatives method                =                   lowmem
     electrolyte derivatives method    =                   lowmem
     numerical core for derivatives    =                      fft
     switching function adopted        =                     SCCS
     density limit for vacuum region   =               0.5000E-02
     density limit for bulk solvent    =               0.1000E-03
     soft-sphere radius mode           =                    bondi
     soft-sphere softness              =                     0.50
     alpha                             =                     1.32

     Electrostatic Setup

     electrostatic problem to solve    =                    modpb
     numerical solver adopted          =                   newton
     type of auxiliary density adopted =                     none
     numerical core for poisson        =                      fft
     adopting a nested solver scheme
     inner solver                      =                       cg
     inner core                        =                      fft
     type of pbc corrections           =                parabolic
     numerical core for corrections    =                      1da

     celldm(1)=  18.360747  celldm(2)=   1.060660  celldm(3)=   5.518976
     celldm(4)=  -0.235702  celldm(5)=   0.000000  celldm(6)=   0.000000

     crystal axes: (cart. coord. in units of alat)
               a(1) = (   1.000000   0.000000   0.000000 )
               a(2) = (  -0.250000   1.030776   0.000000 )
               a(3) = (   0.000000   0.000000   5.518976 )

     reciprocal axes: (cart. coord. in units 2 pi/alat)
               b(1) = (  1.000000  0.242536  0.000000 )
               b(2) = (  0.000000  0.970143  0.000000 )
               b(3) = (  0.000000  0.000000  0.181193 )

     PseudoPot. # 1 for Li read from file:
     /home/ba3g18/Repos/Pseudopotentials/pslibrary.1.0.0/pbe/PSEUDOPOTENTIALS/Li.pbe-sl-kjpaw_psl.1.0.0.UPF
     MD5 check sum: 3f4d2cafebb47c6c3aa8ed472e6f074d
     Pseudo is Projector augmented-wave, Zval =  3.0
     Generated using 'atomic' code by A. Dal Corso  v.7.4
     Shape of augmentation charge: PSQ
     Using radial grid of 1017 points,  4 beta functions with:
                l(1) =   0
                l(2) =   0
                l(3) =   1
                l(4) =   1
     Q(r) pseudized with 0 coefficients

     atomic species   valence    mass     pseudopotential
     Li                3.00     6.94000     Li( 1.00)

     No symmetry found

                                    s                        frac. trans.

      isym =  1     identity

 cryst.   s( 1) = (     1          0          0      )
                  (     0          1          0      )
                  (     0          0          1      )

 cart.    s( 1) = (  1.0000000  0.0000000  0.0000000 )
                  (  0.0000000  1.0000000  0.0000000 )
                  (  0.0000000  0.0000000  1.0000000 )

     point group C_1 (1)
     there are  1 classes
     the character table:

       E
A      1.00

     the symmetry operations in each class and the name of the first element:

     E        1
          identity

   Cartesian axes

     site n.     atom                  positions (alat units)
         1        Li     tau(   1) = (  -0.0004017   0.0300770   2.0584414  )
         2        Li     tau(   2) = (   0.0002449   0.6032534   3.4218061  )
         3        Li     tau(   3) = (   0.2502699   0.7869870   3.2583512  )
         4        Li     tau(   4) = (   0.2503983   0.1911563   3.3004816  )
         5        Li     tau(   5) = (   0.0002587   0.3637194   3.1697971  )
         6        Li     tau(   6) = (   0.2501708   0.5502018   2.9940177  )
         7        Li     tau(   7) = (   0.2499217   0.9087355   2.6503438  )
         8        Li     tau(   8) = (   0.0002693   0.9695899   3.0900634  )
         9        Li     tau(   9) = (   0.0001382   0.1212516   2.9091667  )
        10        Li     tau(  10) = (   0.2499489   0.3060460   2.7264373  )
        11        Li     tau(  11) = (  -0.0001923   0.4832752   2.5664661  )
        12        Li     tau(  12) = (   0.2497917   0.6637477   2.3878715  )
        13        Li     tau(  13) = (   0.0000523   0.7266584   2.8276468  )
        14        Li     tau(  14) = (   0.2498089   0.0552256   2.5005611  )
        15        Li     tau(  15) = (  -0.0003566   0.2455258   2.3092014  )
        16        Li     tau(  16) = (   0.2497353   0.4016367   2.1268898  )
        17        Li     tau(  17) = (  -0.0002679   0.8516772   2.2288662  )
        18        Li     tau(  18) = (   0.0003498   0.0576452   3.2097732  )
        19        Li     tau(  19) = (   0.0002091   0.6701979   3.1311048  )
        20        Li     tau(  20) = (   0.2501921   0.8506704   2.9525104  )
        21        Li     tau(  21) = (   0.2501906   0.2479424   3.0184202  )
        22        Li     tau(  22) = (   0.0000774   0.4252102   2.8686327  )
        23        Li     tau(  23) = (   0.2499479   0.6072872   2.6913289  )
        24        Li     tau(  24) = (   0.2497408   0.9702262   2.3491797  )
        25        Li     tau(  25) = (   0.0000509   1.0278992   2.7925423  )
        26        Li     tau(  26) = (  -0.0001414   0.1819182   2.6098070  )
        27        Li     tau(  27) = (   0.2497311   0.3643549   2.4289148  )
        28        Li     tau(  28) = (  -0.0002689   0.5469597   2.2606257  )
        29        Li     tau(  29) = (   0.2497551   0.7306898   2.0971695  )
        30        Li     tau(  30) = (  -0.0001711   0.7837431   2.5249574  )
        31        Li     tau(  31) = (   0.2496021   0.1120146   2.2185037  )
        32        Li     tau(  32) = (   0.0004329   0.2730980   3.4605343  )
        33        Li     tau(  33) = (   0.2502684   0.4822693   3.2901087  )
        34        Li     tau(  34) = (   0.0002633   0.9323053   3.3920865  )
        35        Li     tau(  35) = (   0.4995561   0.0300694   2.0584422  )
        36        Li     tau(  36) = (   0.5002494   0.6032496   3.4218109  )
        37        Li     tau(  37) = (   0.7502760   0.7869886   3.2583507  )
        38        Li     tau(  38) = (   0.7503988   0.1911586   3.3004971  )
        39        Li     tau(  39) = (   0.5002569   0.3637188   3.1697962  )
        40        Li     tau(  40) = (   0.7501676   0.5502023   2.9940128  )
        41        Li     tau(  41) = (   0.7499250   0.9087373   2.6503447  )
        42        Li     tau(  42) = (   0.5002686   0.9695920   3.0900560  )
        43        Li     tau(  43) = (   0.5001413   0.1212517   2.9091694  )
        44        Li     tau(  44) = (   0.7499506   0.3060468   2.7264417  )
        45        Li     tau(  45) = (   0.4998062   0.4832749   2.5664653  )
        46        Li     tau(  46) = (   0.7497886   0.6637447   2.3878641  )
        47        Li     tau(  47) = (   0.5000536   0.7266586   2.8276525  )
        48        Li     tau(  48) = (   0.7498077   0.0552296   2.5005424  )
        49        Li     tau(  49) = (   0.4996529   0.2455239   2.3092026  )
        50        Li     tau(  50) = (   0.7497394   0.4016535   2.1268987  )
        51        Li     tau(  51) = (   0.4997312   0.8516744   2.2288748  )
        52        Li     tau(  52) = (   0.5003546   0.0576443   3.2097749  )
        53        Li     tau(  53) = (   0.5002104   0.6702010   3.1311119  )
        54        Li     tau(  54) = (   0.7501941   0.8506715   2.9525103  )
        55        Li     tau(  55) = (   0.7501920   0.2479425   3.0184283  )
        56        Li     tau(  56) = (   0.5000755   0.4252089   2.8686311  )
        57        Li     tau(  57) = (   0.7499464   0.6072877   2.6913241  )
        58        Li     tau(  58) = (   0.7497431   0.9702272   2.3491792  )
        59        Li     tau(  59) = (   0.5000490   1.0279003   2.7925309  )
        60        Li     tau(  60) = (   0.4998612   0.1819184   2.6098094  )
        61        Li     tau(  61) = (   0.7497315   0.3643548   2.4289180  )
        62        Li     tau(  62) = (   0.4997231   0.5469562   2.2606246  )
        63        Li     tau(  63) = (   0.7497499   0.7306985   2.0971656  )
        64        Li     tau(  64) = (   0.4998323   0.7837446   2.5249645  )
        65        Li     tau(  65) = (   0.7496017   0.1120099   2.2184694  )
        66        Li     tau(  66) = (   0.5004134   0.2730944   3.4605340  )
        67        Li     tau(  67) = (   0.7502676   0.4822704   3.2901027  )
        68        Li     tau(  68) = (   0.5002624   0.9322958   3.3920772  )

   Crystallographic axes

[...]
     atom   58 type  1   force =     0.00014056    0.06263718    9.06560908
     atom   59 type  1   force =    -0.00005279    0.04476058   -0.74863775
     atom   60 type  1   force =    -0.00018435   -0.02620360    3.35169741
     atom   61 type  1   force =     0.00026601   -0.10076029    7.43767053
     atom   62 type  1   force =    -0.00042539    0.10135261   11.40448288
     atom   63 type  1   force =     0.00012910    0.25727461   14.34496974
     atom   64 type  1   force =    -0.00029262    0.06673715    5.23309628
     atom   65 type  1   force =     0.00005348   -0.16764048   12.21980786
     atom   66 type  1   force =     0.00003115    0.17581417  -14.81749446
     atom   67 type  1   force =     0.00009637   -0.18037204  -11.93361901
     atom   68 type  1   force =    -0.00025754    0.05839229  -14.01279418
     The core correction contribution to forces
     atom    1 type  1   force =     0.00000000    0.00000000    0.00000000
     atom    2 type  1   force =     0.00000000    0.00000000    0.00000000
     atom    3 type  1   force =     0.00000000    0.00000000    0.00000000
     atom    4 type  1   force =     0.00000000    0.00000000    0.00000000
     atom    5 type  1   force =     0.00000000    0.00000000    0.00000000
     atom    6 type  1   force =     0.00000000    0.00000000    0.00000000
     atom    7 type  1   force =     0.00000000    0.00000000    0.00000000
     atom    8 type  1   force =     0.00000000    0.00000000    0.00000000
     atom    9 type  1   force =     0.00000000    0.00000000    0.00000000
     atom   10 type  1   force =     0.00000000    0.00000000    0.00000000
     atom   11 type  1   force =     0.00000000    0.00000000    0.00000000
     atom   12 type  1   force =     0.00000000    0.00000000    0.00000000
     atom   13 type  1   force =     0.00000000    0.00000000    0.00000000
     atom   14 type  1   force =     0.00000000    0.00000000    0.00000000
     atom   15 type  1   force =     0.00000000    0.00000000    0.00000000
     atom   16 type  1   force =     0.00000000    0.00000000    0.00000000
     atom   17 type  1   force =     0.00000000    0.00000000    0.00000000
     atom   18 type  1   force =     0.00000000    0.00000000    0.00000000
     atom   19 type  1   force =     0.00000000    0.00000000    0.00000000
     atom   20 type  1   force =     0.00000000    0.00000000    0.00000000
     atom   21 type  1   force =     0.00000000    0.00000000    0.00000000
     atom   22 type  1   force =     0.00000000    0.00000000    0.00000000
     atom   23 type  1   force =     0.00000000    0.00000000    0.00000000
     atom   24 type  1   force =     0.00000000    0.00000000    0.00000000
     atom   25 type  1   force =     0.00000000    0.00000000    0.00000000
     atom   26 type  1   force =     0.00000000    0.00000000    0.00000000
     atom   27 type  1   force =     0.00000000    0.00000000    0.00000000
     atom   28 type  1   force =     0.00000000    0.00000000    0.00000000
     atom   29 type  1   force =     0.00000000    0.00000000    0.00000000
     atom   30 type  1   force =     0.00000000    0.00000000    0.00000000
     atom   31 type  1   force =     0.00000000    0.00000000    0.00000000
     atom   32 type  1   force =     0.00000000    0.00000000    0.00000000
     atom   33 type  1   force =     0.00000000    0.00000000    0.00000000
     atom   34 type  1   force =     0.00000000    0.00000000    0.00000000
     atom   35 type  1   force =     0.00000000    0.00000000    0.00000000
     atom   36 type  1   force =     0.00000000    0.00000000    0.00000000
     atom   37 type  1   force =     0.00000000    0.00000000    0.00000000
     atom   38 type  1   force =     0.00000000    0.00000000    0.00000000
     atom   39 type  1   force =     0.00000000    0.00000000    0.00000000
     atom   40 type  1   force =     0.00000000    0.00000000    0.00000000
     atom   41 type  1   force =     0.00000000    0.00000000    0.00000000
     atom   42 type  1   force =     0.00000000    0.00000000    0.00000000
     atom   43 type  1   force =     0.00000000    0.00000000    0.00000000
     atom   44 type  1   force =     0.00000000    0.00000000    0.00000000
     atom   45 type  1   force =     0.00000000    0.00000000    0.00000000
     atom   46 type  1   force =     0.00000000    0.00000000    0.00000000
     atom   47 type  1   force =     0.00000000    0.00000000    0.00000000
     atom   48 type  1   force =     0.00000000    0.00000000    0.00000000
     atom   49 type  1   force =     0.00000000    0.00000000    0.00000000
     atom   50 type  1   force =     0.00000000    0.00000000    0.00000000
     atom   51 type  1   force =     0.00000000    0.00000000    0.00000000
     atom   52 type  1   force =     0.00000000    0.00000000    0.00000000
     atom   53 type  1   force =     0.00000000    0.00000000    0.00000000
     atom   54 type  1   force =     0.00000000    0.00000000    0.00000000
     atom   55 type  1   force =     0.00000000    0.00000000    0.00000000
     atom   56 type  1   force =     0.00000000    0.00000000    0.00000000
     atom   57 type  1   force =     0.00000000    0.00000000    0.00000000
     atom   58 type  1   force =     0.00000000    0.00000000    0.00000000
     atom   59 type  1   force =     0.00000000    0.00000000    0.00000000
     atom   60 type  1   force =     0.00000000    0.00000000    0.00000000
     atom   61 type  1   force =     0.00000000    0.00000000    0.00000000
     atom   62 type  1   force =     0.00000000    0.00000000    0.00000000
     atom   63 type  1   force =     0.00000000    0.00000000    0.00000000
     atom   64 type  1   force =     0.00000000    0.00000000    0.00000000
     atom   65 type  1   force =     0.00000000    0.00000000    0.00000000
     atom   66 type  1   force =     0.00000000    0.00000000    0.00000000
     atom   67 type  1   force =     0.00000000    0.00000000    0.00000000
     atom   68 type  1   force =     0.00000000    0.00000000    0.00000000
     The Hubbard contrib.    to forces
     atom    1 type  1   force =     0.00000000    0.00000000    0.00000000
     atom    2 type  1   force =     0.00000000    0.00000000    0.00000000
     atom    3 type  1   force =     0.00000000    0.00000000    0.00000000
     atom    4 type  1   force =     0.00000000    0.00000000    0.00000000
     atom    5 type  1   force =     0.00000000    0.00000000    0.00000000
     atom    6 type  1   force =     0.00000000    0.00000000    0.00000000
     atom    7 type  1   force =     0.00000000    0.00000000    0.00000000
     atom    8 type  1   force =     0.00000000    0.00000000    0.00000000
     atom    9 type  1   force =     0.00000000    0.00000000    0.00000000
     atom   10 type  1   force =     0.00000000    0.00000000    0.00000000
     atom   11 type  1   force =     0.00000000    0.00000000    0.00000000
     atom   12 type  1   force =     0.00000000    0.00000000    0.00000000
     atom   13 type  1   force =     0.00000000    0.00000000    0.00000000
     atom   14 type  1   force =     0.00000000    0.00000000    0.00000000
     atom   15 type  1   force =     0.00000000    0.00000000    0.00000000
     atom   16 type  1   force =     0.00000000    0.00000000    0.00000000
     atom   17 type  1   force =     0.00000000    0.00000000    0.00000000
     atom   18 type  1   force =     0.00000000    0.00000000    0.00000000
     atom   19 type  1   force =     0.00000000    0.00000000    0.00000000
     atom   20 type  1   force =     0.00000000    0.00000000    0.00000000
     atom   21 type  1   force =     0.00000000    0.00000000    0.00000000
     atom   22 type  1   force =     0.00000000    0.00000000    0.00000000
     atom   23 type  1   force =     0.00000000    0.00000000    0.00000000
     atom   24 type  1   force =     0.00000000    0.00000000    0.00000000
     atom   25 type  1   force =     0.00000000    0.00000000    0.00000000
     atom   26 type  1   force =     0.00000000    0.00000000    0.00000000
     atom   27 type  1   force =     0.00000000    0.00000000    0.00000000
     atom   28 type  1   force =     0.00000000    0.00000000    0.00000000
     atom   29 type  1   force =     0.00000000    0.00000000    0.00000000
     atom   30 type  1   force =     0.00000000    0.00000000    0.00000000
     atom   31 type  1   force =     0.00000000    0.00000000    0.00000000
     atom   32 type  1   force =     0.00000000    0.00000000    0.00000000
     atom   33 type  1   force =     0.00000000    0.00000000    0.00000000
     atom   34 type  1   force =     0.00000000    0.00000000    0.00000000
     atom   35 type  1   force =     0.00000000    0.00000000    0.00000000
     atom   36 type  1   force =     0.00000000    0.00000000    0.00000000
     atom   37 type  1   force =     0.00000000    0.00000000    0.00000000
     atom   38 type  1   force =     0.00000000    0.00000000    0.00000000
     atom   39 type  1   force =     0.00000000    0.00000000    0.00000000
     atom   40 type  1   force =     0.00000000    0.00000000    0.00000000
     atom   41 type  1   force =     0.00000000    0.00000000    0.00000000
     atom   42 type  1   force =     0.00000000    0.00000000    0.00000000
     atom   43 type  1   force =     0.00000000    0.00000000    0.00000000
     atom   44 type  1   force =     0.00000000    0.00000000    0.00000000
     atom   45 type  1   force =     0.00000000    0.00000000    0.00000000
     atom   46 type  1   force =     0.00000000    0.00000000    0.00000000
     atom   47 type  1   force =     0.00000000    0.00000000    0.00000000
     atom   48 type  1   force =     0.00000000    0.00000000    0.00000000
     atom   49 type  1   force =     0.00000000    0.00000000    0.00000000
     atom   50 type  1   force =     0.00000000    0.00000000    0.00000000
     atom   51 type  1   force =     0.00000000    0.00000000    0.00000000
     atom   52 type  1   force =     0.00000000    0.00000000    0.00000000
     atom   53 type  1   force =     0.00000000    0.00000000    0.00000000
     atom   54 type  1   force =     0.00000000    0.00000000    0.00000000
     atom   55 type  1   force =     0.00000000    0.00000000    0.00000000
     atom   56 type  1   force =     0.00000000    0.00000000    0.00000000
     atom   57 type  1   force =     0.00000000    0.00000000    0.00000000
     atom   58 type  1   force =     0.00000000    0.00000000    0.00000000
     atom   59 type  1   force =     0.00000000    0.00000000    0.00000000
     atom   60 type  1   force =     0.00000000    0.00000000    0.00000000
     atom   61 type  1   force =     0.00000000    0.00000000    0.00000000
     atom   62 type  1   force =     0.00000000    0.00000000    0.00000000
     atom   63 type  1   force =     0.00000000    0.00000000    0.00000000
     atom   64 type  1   force =     0.00000000    0.00000000    0.00000000
     atom   65 type  1   force =     0.00000000    0.00000000    0.00000000
     atom   66 type  1   force =     0.00000000    0.00000000    0.00000000
     atom   67 type  1   force =     0.00000000    0.00000000    0.00000000
     atom   68 type  1   force =     0.00000000    0.00000000    0.00000000
     The SCF correction term to forces
     atom    1 type  1   force =    -0.00000000   -0.00000000    0.00000000
     atom    2 type  1   force =    -0.00000000   -0.00000000    0.00000001
     atom    3 type  1   force =    -0.00000000   -0.00000000    0.00000001
     atom    4 type  1   force =    -0.00000000    0.00000000    0.00000001
     atom    5 type  1   force =    -0.00000000    0.00000000    0.00000001
     atom    6 type  1   force =    -0.00000000   -0.00000000    0.00000001
     atom    7 type  1   force =     0.00000000   -0.00000000    0.00000002
     atom    8 type  1   force =    -0.00000000   -0.00000000    0.00000001
     atom    9 type  1   force =     0.00000000    0.00000000    0.00000002
     atom   10 type  1   force =    -0.00000000    0.00000000    0.00000002
     atom   11 type  1   force =    -0.00000000    0.00000000    0.00000002
     atom   12 type  1   force =    -0.00000000   -0.00000000    0.00000002
     atom   13 type  1   force =    -0.00000000   -0.00000000    0.00000002
     atom   14 type  1   force =    -0.00000000   -0.00000000    0.00000001
     atom   15 type  1   force =    -0.00000000   -0.00000000    0.00000001
     atom   16 type  1   force =    -0.00000000   -0.00000000    0.00000001
     atom   17 type  1   force =    -0.00000000    0.00000000    0.00000001
     atom   18 type  1   force =    -0.00000000   -0.00000000    0.00000001
     atom   19 type  1   force =    -0.00000000   -0.00000000    0.00000001
     atom   20 type  1   force =    -0.00000000   -0.00000000    0.00000001
     atom   21 type  1   force =    -0.00000000    0.00000000    0.00000002
     atom   22 type  1   force =     0.00000000    0.00000000    0.00000002
     atom   23 type  1   force =    -0.00000000   -0.00000000    0.00000002
     atom   24 type  1   force =    -0.00000000   -0.00000000    0.00000002
     atom   25 type  1   force =    -0.00000000   -0.00000000    0.00000002
     atom   26 type  1   force =    -0.00000000   -0.00000000    0.00000002
     atom   27 type  1   force =    -0.00000000    0.00000000    0.00000002
     atom   28 type  1   force =    -0.00000000    0.00000000    0.00000001
     atom   29 type  1   force =    -0.00000000    0.00000000    0.00000000
     atom   30 type  1   force =    -0.00000000   -0.00000000    0.00000002
     atom   31 type  1   force =    -0.00000000   -0.00000000    0.00000000
     atom   32 type  1   force =    -0.00000000    0.00000000    0.00000001
     atom   33 type  1   force =     0.00000000   -0.00000000    0.00000001
     atom   34 type  1   force =    -0.00000000    0.00000000    0.00000000
     atom   35 type  1   force =     0.00000000   -0.00000000    0.00000000
     atom   36 type  1   force =     0.00000000   -0.00000000    0.00000001
     atom   37 type  1   force =    -0.00000000   -0.00000000    0.00000001
     atom   38 type  1   force =     0.00000000    0.00000000    0.00000001
     atom   39 type  1   force =     0.00000000    0.00000000    0.00000001
     atom   40 type  1   force =     0.00000000    0.00000000    0.00000002
     atom   41 type  1   force =     0.00000000   -0.00000000    0.00000002
     atom   42 type  1   force =     0.00000000   -0.00000000    0.00000001
     atom   43 type  1   force =     0.00000000    0.00000000    0.00000002
     atom   44 type  1   force =    -0.00000000    0.00000000    0.00000002
     atom   45 type  1   force =     0.00000000    0.00000000    0.00000002
     atom   46 type  1   force =     0.00000000    0.00000000    0.00000002
     atom   47 type  1   force =     0.00000000   -0.00000000    0.00000002
     atom   48 type  1   force =     0.00000000   -0.00000000    0.00000001
     atom   49 type  1   force =     0.00000000   -0.00000000    0.00000001
     atom   50 type  1   force =     0.00000000   -0.00000000    0.00000001
     atom   51 type  1   force =     0.00000000    0.00000000    0.00000001
     atom   52 type  1   force =     0.00000000   -0.00000000    0.00000001
     atom   53 type  1   force =     0.00000000   -0.00000000    0.00000001
     atom   54 type  1   force =    -0.00000000   -0.00000000    0.00000001
     atom   55 type  1   force =     0.00000000    0.00000000    0.00000002
     atom   56 type  1   force =    -0.00000000    0.00000000    0.00000002
     atom   57 type  1   force =     0.00000000    0.00000000    0.00000002
     atom   58 type  1   force =     0.00000000    0.00000000    0.00000001
     atom   59 type  1   force =     0.00000000    0.00000000    0.00000002
     atom   60 type  1   force =     0.00000000    0.00000000    0.00000002
     atom   61 type  1   force =     0.00000000    0.00000000    0.00000002
     atom   62 type  1   force =    -0.00000000    0.00000000    0.00000001
     atom   63 type  1   force =    -0.00000000    0.00000000    0.00000001
     atom   64 type  1   force =     0.00000000   -0.00000000    0.00000002
     atom   65 type  1   force =     0.00000000   -0.00000000    0.00000000
     atom   66 type  1   force =     0.00000000    0.00000000    0.00000000
     atom   67 type  1   force =    -0.00000000   -0.00000000    0.00000001
     atom   68 type  1   force =     0.00000000    0.00000000    0.00000000

     Total force =     0.000167     Total SCF correction =     0.000000
     Message from routine punch:
     Nothing written, as per user request (disk_io='none')

     General routines

     Parallel routines

     PAW routines

     Environ routines

   This run was terminated on:  13: 0:21  28Dec2024

   JOB DONE.