     Program PWSCF v.7.4 starts on  3Jan2025 at 12: 9:53

     Reading input from espresso.pwi
Warning: card &CELL ignored
Warning: card    PRESS_CONV_THR   = 0.1 ignored
Warning: card    CELL_DOFREE      = 'ALL' ignored
Warning: card / ignored
Warning: card &FCP ignored
Warning: card / ignored
Warning: card &RISM ignored
Warning: card / ignored

     Current dimensions of program PWSCF are:
     Max number of different atomic species (ntypx) = 10
     Max number of k-points (npk) =  40000
     Max angular momentum in pseudopotentials (lmaxx) =  4

     IMPORTANT: XC functional enforced from input :
     Exchange-correlation= PBE
                           (   1   4   3   4   0   0   0)
     Any further DFT definition will be discarded
     Please, verify this is what you really want

     Reading input from environ.in:
     * using ionic solvent mode
     * setting boundary derivatives method to SSCS default
     * setting electrolyte-boundary derivatives method to SSCS default

Environ Warning (1001): card EOF ignored

     K-points division:     npool     =       2
     R & G space division:  proc/nbgrp/npool/nimage =     192
     Subspace diagonalization in iterative solution of the eigenvalue problem:
     a serial algorithm will be used

     Using Slab Decomposition

     bravais-lattice index     =            4
     lattice parameter (alat)  =      18.3607  a.u.
     unit-cell volume          =   28251.3786 (a.u.)^3
     number of atoms/cell      =           48
     number of atomic types    =            1
     number of electrons       =       144.00
     number of Kohn-Sham states=          108
     kinetic-energy cutoff     =      80.0000  Ry
     charge density cutoff     =     800.0000  Ry
     scf convergence threshold =      1.0E-06
     mixing beta               =       0.2000
     number of iterations used =            8  local-TF  mixing
     energy convergence thresh.=      1.0E-05
     force convergence thresh. =      3.9E-04
     Exchange-correlation= PBE
                           (   1   4   3   4   0   0   0)
     nstep                     =          999

                                  Environ Setup Summary

          O. Andreussi, I. Dabo and N. Marzari, J. Chem. Phys. 136, 064102 (2012)
          F. Nattino, M. Truscott, N. Marzari, and O. Andreussi, J. Chem. Phys. 150, 041722 (2019)

     in publications or presentations arising from this work.

     Parameters

     compensation onset threshold      =               0.1000E+00
     static permittivity               =                    89.90
     surface tension in input (dyn/cm) =                    37.30
     surface tension in internal units =               0.4792E-04

     Solvent Boundary

     solvent mode                      =                    ionic
     derivatives method                =                   lowmem
     electrolyte derivatives method    =                   lowmem
     numerical core for derivatives    =                      fft
     switching function adopted        =                     SCCS
     density limit for vacuum region   =               0.5000E-02
     density limit for bulk solvent    =               0.1000E-03
     soft-sphere radius mode           =                    bondi
     soft-sphere softness              =                     0.50
     alpha                             =                     1.32

     Electrostatic Setup

     electrostatic problem to solve    =                    modpb
     numerical solver adopted          =                   newton
     type of auxiliary density adopted =                     none
     numerical core for poisson        =                      fft
     adopting a nested solver scheme
     inner solver                      =                       cg
     inner core                        =                      fft
     type of pbc corrections           =                parabolic
     numerical core for corrections    =                      1da

     >>>>> Grand-Canonical SCF is activated <<<<<
     Initial Total Charge  =     0.000000 e
     Target Fermi Energy   =    -1.904000 eV
     Thr. of Fermi Energy  =     0.001000 eV
     Wave-shift of Kerker  =     0.400000 bohr^-1
     Wave-shift of Hartree =     1.500000 bohr^-1
     Mixing Rate of Fermi  =     0.050000

     celldm(1)=  18.360747  celldm(2)=   0.000000  celldm(3)=   5.270332
     celldm(4)=   0.000000  celldm(5)=   0.000000  celldm(6)=   0.000000

     crystal axes: (cart. coord. in units of alat)
               a(1) = (   1.000000   0.000000   0.000000 )
               a(2) = (  -0.500000   0.866025   0.000000 )
               a(3) = (   0.000000   0.000000   5.270332 )

     reciprocal axes: (cart. coord. in units 2 pi/alat)
               b(1) = (  1.000000  0.577350 -0.000000 )
               b(2) = (  0.000000  1.154701  0.000000 )
               b(3) = (  0.000000 -0.000000  0.189741 )

     PseudoPot. # 1 for Li read from file:
     /work/e89/e89/ba3g18/Repos/Pseudopotentials/Pslibrary/Li.pbe-sl-kjpaw_psl.1.0.0.UPF
     MD5 check sum: 3f4d2cafebb47c6c3aa8ed472e6f074d
     Pseudo is Projector augmented-wave, Zval =  3.0
     Generated using 'atomic' code by A. Dal Corso  v.7.4
     Shape of augmentation charge: PSQ
     Using radial grid of 1017 points,  4 beta functions with:
                l(1) =   0
                l(2) =   0
                l(3) =   1
                l(4) =   1
     Q(r) pseudized with 0 coefficients

     atomic species   valence    mass     pseudopotential
     Li                3.00     6.94000     Li( 1.00)

      4 Sym. Ops., with inversion, found ( 2 have fractional translation)

                                    s                        frac. trans.

      isym =  1     identity

 cryst.   s( 1) = (     1          0          0      )
                  (     0          1          0      )
                  (     0          0          1      )

 cart.    s( 1) = (  1.0000000  0.0000000  0.0000000 )
                  (  0.0000000  1.0000000  0.0000000 )
                  (  0.0000000  0.0000000  1.0000000 )

      isym =  2     180 deg rotation - cart. axis [1,0,0]

 cryst.   s( 2) = (     1          0          0      )    f =(  0.3333335 )
                  (    -1         -1          0      )       ( -0.3333329 )
                  (     0          0         -1      )       ( -0.0000013 )

 cart.    s( 2) = (  1.0000000  0.0000000  0.0000000 )    f =(  0.5000000 )
                  (  0.0000000 -1.0000000  0.0000000 )       ( -0.2886748 )
                  (  0.0000000  0.0000000 -1.0000000 )       ( -0.0000068 )

      isym =  3     inversion

 cryst.   s( 3) = (    -1          0          0      )    f =(  0.3333335 )
                  (     0         -1          0      )       ( -0.3333329 )
                  (     0          0         -1      )       ( -0.0000013 )

 cart.    s( 3) = ( -1.0000000  0.0000000  0.0000000 )    f =(  0.5000000 )
                  (  0.0000000 -1.0000000  0.0000000 )       ( -0.2886748 )
                  (  0.0000000  0.0000000 -1.0000000 )       ( -0.0000068 )

      isym =  4     inv. 180 deg rotation - cart. axis [1,0,0]

 cryst.   s( 4) = (    -1          0          0      )
                  (     1          1          0      )
                  (     0          0          1      )

 cart.    s( 4) = ( -1.0000000  0.0000000  0.0000000 )
                  (  0.0000000  1.0000000  0.0000000 )
                  (  0.0000000  0.0000000  1.0000000 )

     point group C_2h (2/m)
     there are  4 classes
     the character table:

       E     C2    i     s_h
A_g    1.00  1.00  1.00  1.00
B_g    1.00 -1.00  1.00 -1.00
A_u    1.00  1.00 -1.00 -1.00
B_u    1.00 -1.00 -1.00  1.00

     the symmetry operations in each class and the name of the first element:

     E        1
          identity
     C2       2
          180 deg rotation - cart. axis [1,0,0]
     i        3
          inversion
     s_h      4
          inv. 180 deg rotation - cart. axis [1,0,0]

   Cartesian axes

     site n.     atom                  positions (alat units)
         1        Li     tau(   1) = (  -0.0000000   0.0000022   2.5771317  )
         2        Li     tau(   2) = (   0.2500048   0.1443421   2.1842095  )
         3        Li     tau(   3) = (   0.5000000   0.2886824   2.3805071  )
         4        Li     tau(   4) = (   0.0000000   0.0000050   2.2633103  )
         5        Li     tau(   5) = (   0.2500026   0.1443409   2.4827593  )
         6        Li     tau(   6) = (   0.5000000   0.2886793   2.0742596  )
         7        Li     tau(   7) = (   0.0000000  -0.0000065   3.1960698  )
         8        Li     tau(   8) = (   0.2499986   0.1443330   2.7875747  )
         9        Li     tau(   9) = (   0.5000000   0.2886698   3.0070334  )
        10        Li     tau(  10) = (  -0.0000000  -0.0000047   2.8898286  )
        11        Li     tau(  11) = (   0.2499975   0.1443330   3.0861194  )
        12        Li     tau(  12) = (   0.5000000   0.2886726   2.6932071  )
        13        Li     tau(  13) = (   0.2499994   0.4330142   2.5771293  )
        14        Li     tau(  14) = (   0.5000000   0.5773528   2.1842107  )
        15        Li     tau(  15) = (   0.7499964   0.7216887   2.3805081  )
        16        Li     tau(  16) = (   0.2499999   0.4330170   2.2633089  )
        17        Li     tau(  17) = (   0.5000000   0.5773506   2.4827588  )
        18        Li     tau(  18) = (   0.7499993   0.7216932   2.0742596  )
        19        Li     tau(  19) = (   0.2499982   0.4330119   3.1960685  )
        20        Li     tau(  20) = (   0.5000000   0.5773493   2.7875723  )
        21        Li     tau(  21) = (   0.7500011   0.7216851   3.0070173  )
        22        Li     tau(  22) = (   0.2500029   0.4330083   2.8898273  )
        23        Li     tau(  23) = (   0.5000000   0.5773495   3.0861141  )
        24        Li     tau(  24) = (   0.7499996   0.7216866   2.6932026  )
        25        Li     tau(  25) = (   0.5000000  -0.0000014   2.5771383  )
        26        Li     tau(  26) = (   0.7499952   0.1443421   2.1842096  )
        27        Li     tau(  27) = (   1.0000000   0.2886813   2.3805058  )
        28        Li     tau(  28) = (   0.5000000   0.0000024   2.2633269  )
        29        Li     tau(  29) = (   0.7499974   0.1443409   2.4827593  )
        30        Li     tau(  30) = (   1.0000000   0.2886762   2.0742565  )
        31        Li     tau(  31) = (   0.5000000  -0.0000094   3.1960692  )
        32        Li     tau(  32) = (   0.7500013   0.1443330   2.7875747  )
        33        Li     tau(  33) = (   1.0000000   0.2886687   3.0070170  )
        34        Li     tau(  34) = (   0.5000000  -0.0000004   2.8898295  )
        35        Li     tau(  35) = (   0.7500025   0.1443330   3.0861194  )
        36        Li     tau(  36) = (   1.0000000   0.2886747   2.6932025  )
        37        Li     tau(  37) = (   0.7500006   0.4330142   2.5771293  )
        38        Li     tau(  38) = (   1.0000000   0.5773570   2.1842054  )
        39        Li     tau(  39) = (   1.2500035   0.7216887   2.3805081  )
        40        Li     tau(  40) = (   0.7500001   0.4330170   2.2633089  )
[...]
     atom   28 type  1   force =     0.00000284    0.00209584    8.65730798
     atom   29 type  1   force =     0.00014963    0.00025678    3.47900827
     atom   30 type  1   force =     0.00000833    0.00166912   12.33568675
     atom   31 type  1   force =     0.00000228    0.00283419  -12.32807958
     atom   32 type  1   force =     0.00054924    0.00024077   -3.47620700
     atom   33 type  1   force =     0.00000306   -0.00001340   -8.66029759
     atom   34 type  1   force =     0.00000227   -0.00054922   -5.68291199
     atom   35 type  1   force =     0.00060374   -0.00001740  -10.42319226
     atom   36 type  1   force =     0.00000365   -0.00113018   -1.38876691
     atom   37 type  1   force =    -0.00256149   -0.00043238    1.39148051
     atom   38 type  1   force =     0.00000249   -0.00007738   10.43701584
     atom   39 type  1   force =     0.00153603    0.00115614    5.68361670
     atom   40 type  1   force =    -0.00128791   -0.00073045    8.66291213
     atom   41 type  1   force =     0.00000307   -0.00120139    3.48295574
     atom   42 type  1   force =     0.00009389   -0.00123227   12.33423009
     atom   43 type  1   force =    -0.00149836   -0.00154103  -12.32806451
     atom   44 type  1   force =     0.00000307   -0.00142948   -3.47524077
     atom   45 type  1   force =     0.00186773   -0.00035744   -8.65553782
     atom   46 type  1   force =    -0.00190090    0.00065369   -5.68165720
     atom   47 type  1   force =     0.00000307   -0.00017563  -10.42343316
     atom   48 type  1   force =     0.00200932    0.00010680   -1.38739621
     The core correction contribution to forces
     atom    1 type  1   force =     0.00000000    0.00000000    0.00000000
     atom    2 type  1   force =     0.00000000    0.00000000    0.00000000
     atom    3 type  1   force =     0.00000000    0.00000000    0.00000000
     atom    4 type  1   force =     0.00000000    0.00000000    0.00000000
     atom    5 type  1   force =     0.00000000    0.00000000    0.00000000
     atom    6 type  1   force =     0.00000000    0.00000000    0.00000000
     atom    7 type  1   force =     0.00000000    0.00000000    0.00000000
     atom    8 type  1   force =     0.00000000    0.00000000    0.00000000
     atom    9 type  1   force =     0.00000000    0.00000000    0.00000000
     atom   10 type  1   force =     0.00000000    0.00000000    0.00000000
     atom   11 type  1   force =     0.00000000    0.00000000    0.00000000
     atom   12 type  1   force =     0.00000000    0.00000000    0.00000000
     atom   13 type  1   force =     0.00000000    0.00000000    0.00000000
     atom   14 type  1   force =     0.00000000    0.00000000    0.00000000
     atom   15 type  1   force =     0.00000000    0.00000000    0.00000000
     atom   16 type  1   force =     0.00000000    0.00000000    0.00000000
     atom   17 type  1   force =     0.00000000    0.00000000    0.00000000
     atom   18 type  1   force =     0.00000000    0.00000000    0.00000000
     atom   19 type  1   force =     0.00000000    0.00000000    0.00000000
     atom   20 type  1   force =     0.00000000    0.00000000    0.00000000
     atom   21 type  1   force =     0.00000000    0.00000000    0.00000000
     atom   22 type  1   force =     0.00000000    0.00000000    0.00000000
     atom   23 type  1   force =     0.00000000    0.00000000    0.00000000
     atom   24 type  1   force =     0.00000000    0.00000000    0.00000000
     atom   25 type  1   force =     0.00000000    0.00000000    0.00000000
     atom   26 type  1   force =     0.00000000    0.00000000    0.00000000
     atom   27 type  1   force =     0.00000000    0.00000000    0.00000000
     atom   28 type  1   force =     0.00000000    0.00000000    0.00000000
     atom   29 type  1   force =     0.00000000    0.00000000    0.00000000
     atom   30 type  1   force =     0.00000000    0.00000000    0.00000000
     atom   31 type  1   force =     0.00000000    0.00000000    0.00000000
     atom   32 type  1   force =     0.00000000    0.00000000    0.00000000
     atom   33 type  1   force =     0.00000000    0.00000000    0.00000000
     atom   34 type  1   force =     0.00000000    0.00000000    0.00000000
     atom   35 type  1   force =     0.00000000    0.00000000    0.00000000
     atom   36 type  1   force =     0.00000000    0.00000000    0.00000000
     atom   37 type  1   force =     0.00000000    0.00000000    0.00000000
     atom   38 type  1   force =     0.00000000    0.00000000    0.00000000
     atom   39 type  1   force =     0.00000000    0.00000000    0.00000000
     atom   40 type  1   force =     0.00000000    0.00000000    0.00000000
     atom   41 type  1   force =     0.00000000    0.00000000    0.00000000
     atom   42 type  1   force =     0.00000000    0.00000000    0.00000000
     atom   43 type  1   force =     0.00000000    0.00000000    0.00000000
     atom   44 type  1   force =     0.00000000    0.00000000    0.00000000
     atom   45 type  1   force =     0.00000000    0.00000000    0.00000000
     atom   46 type  1   force =     0.00000000    0.00000000    0.00000000
     atom   47 type  1   force =     0.00000000    0.00000000    0.00000000
     atom   48 type  1   force =     0.00000000    0.00000000    0.00000000
     The Hubbard contrib.    to forces
     atom    1 type  1   force =     0.00000000    0.00000000    0.00000000
     atom    2 type  1   force =     0.00000000    0.00000000    0.00000000
     atom    3 type  1   force =     0.00000000    0.00000000    0.00000000
     atom    4 type  1   force =     0.00000000    0.00000000    0.00000000
     atom    5 type  1   force =     0.00000000    0.00000000    0.00000000
     atom    6 type  1   force =     0.00000000    0.00000000    0.00000000
     atom    7 type  1   force =     0.00000000    0.00000000    0.00000000
     atom    8 type  1   force =     0.00000000    0.00000000    0.00000000
     atom    9 type  1   force =     0.00000000    0.00000000    0.00000000
     atom   10 type  1   force =     0.00000000    0.00000000    0.00000000
     atom   11 type  1   force =     0.00000000    0.00000000    0.00000000
     atom   12 type  1   force =     0.00000000    0.00000000    0.00000000
     atom   13 type  1   force =     0.00000000    0.00000000    0.00000000
     atom   14 type  1   force =     0.00000000    0.00000000    0.00000000
     atom   15 type  1   force =     0.00000000    0.00000000    0.00000000
     atom   16 type  1   force =     0.00000000    0.00000000    0.00000000
     atom   17 type  1   force =     0.00000000    0.00000000    0.00000000
     atom   18 type  1   force =     0.00000000    0.00000000    0.00000000
     atom   19 type  1   force =     0.00000000    0.00000000    0.00000000
     atom   20 type  1   force =     0.00000000    0.00000000    0.00000000
     atom   21 type  1   force =     0.00000000    0.00000000    0.00000000
     atom   22 type  1   force =     0.00000000    0.00000000    0.00000000
     atom   23 type  1   force =     0.00000000    0.00000000    0.00000000
     atom   24 type  1   force =     0.00000000    0.00000000    0.00000000
     atom   25 type  1   force =     0.00000000    0.00000000    0.00000000
     atom   26 type  1   force =     0.00000000    0.00000000    0.00000000
     atom   27 type  1   force =     0.00000000    0.00000000    0.00000000
     atom   28 type  1   force =     0.00000000    0.00000000    0.00000000
     atom   29 type  1   force =     0.00000000    0.00000000    0.00000000
     atom   30 type  1   force =     0.00000000    0.00000000    0.00000000
     atom   31 type  1   force =     0.00000000    0.00000000    0.00000000
     atom   32 type  1   force =     0.00000000    0.00000000    0.00000000
     atom   33 type  1   force =     0.00000000    0.00000000    0.00000000
     atom   34 type  1   force =     0.00000000    0.00000000    0.00000000
     atom   35 type  1   force =     0.00000000    0.00000000    0.00000000
     atom   36 type  1   force =     0.00000000    0.00000000    0.00000000
     atom   37 type  1   force =     0.00000000    0.00000000    0.00000000
     atom   38 type  1   force =     0.00000000    0.00000000    0.00000000
     atom   39 type  1   force =     0.00000000    0.00000000    0.00000000
     atom   40 type  1   force =     0.00000000    0.00000000    0.00000000
     atom   41 type  1   force =     0.00000000    0.00000000    0.00000000
     atom   42 type  1   force =     0.00000000    0.00000000    0.00000000
     atom   43 type  1   force =     0.00000000    0.00000000    0.00000000
     atom   44 type  1   force =     0.00000000    0.00000000    0.00000000
     atom   45 type  1   force =     0.00000000    0.00000000    0.00000000
     atom   46 type  1   force =     0.00000000    0.00000000    0.00000000
     atom   47 type  1   force =     0.00000000    0.00000000    0.00000000
     atom   48 type  1   force =     0.00000000    0.00000000    0.00000000
     The SCF correction term to forces
     atom    1 type  1   force =     0.00000000    0.00000002    0.00000009
     atom    2 type  1   force =    -0.00000007    0.00000000    0.00000025
     atom    3 type  1   force =     0.00000000    0.00000002    0.00000009
     atom    4 type  1   force =    -0.00000000    0.00000004    0.00000006
     atom    5 type  1   force =    -0.00000005   -0.00000000    0.00000025
     atom    6 type  1   force =     0.00000000    0.00000001   -0.00000057
     atom    7 type  1   force =    -0.00000000   -0.00000001    0.00000052
     atom    8 type  1   force =     0.00000006   -0.00000000   -0.00000024
     atom    9 type  1   force =     0.00000000   -0.00000004   -0.00000005
     atom   10 type  1   force =     0.00000000   -0.00000003   -0.00000008
     atom   11 type  1   force =     0.00000007   -0.00000001   -0.00000028
     atom   12 type  1   force =     0.00000000   -0.00000002   -0.00000010
     atom   13 type  1   force =    -0.00000003    0.00000000    0.00000015
     atom   14 type  1   force =     0.00000000    0.00000003    0.00000027
     atom   15 type  1   force =    -0.00000002   -0.00000000    0.00000005
     atom   16 type  1   force =    -0.00000004   -0.00000000    0.00000004
     atom   17 type  1   force =    -0.00000000    0.00000002    0.00000023
     atom   18 type  1   force =    -0.00000004    0.00000001   -0.00000045
     atom   19 type  1   force =     0.00000003   -0.00000000    0.00000043
     atom   20 type  1   force =    -0.00000000   -0.00000002   -0.00000022
     atom   21 type  1   force =     0.00000005   -0.00000000   -0.00000004
     atom   22 type  1   force =     0.00000001    0.00000000   -0.00000005
     atom   23 type  1   force =    -0.00000000   -0.00000003   -0.00000027
     atom   24 type  1   force =     0.00000003    0.00000001   -0.00000014
     atom   25 type  1   force =     0.00000000   -0.00000001    0.00000022
     atom   26 type  1   force =     0.00000007    0.00000000    0.00000025
     atom   27 type  1   force =    -0.00000000   -0.00000001    0.00000002
     atom   28 type  1   force =    -0.00000000   -0.00000003    0.00000003
     atom   29 type  1   force =     0.00000005   -0.00000000    0.00000025
     atom   30 type  1   force =     0.00000000   -0.00000003   -0.00000040
     atom   31 type  1   force =    -0.00000000    0.00000002    0.00000043
     atom   32 type  1   force =    -0.00000006   -0.00000000   -0.00000023
     atom   33 type  1   force =    -0.00000000    0.00000003   -0.00000003
     atom   34 type  1   force =    -0.00000000   -0.00000001   -0.00000003
     atom   35 type  1   force =    -0.00000007   -0.00000001   -0.00000028
     atom   36 type  1   force =    -0.00000000    0.00000001   -0.00000022
     atom   37 type  1   force =     0.00000003   -0.00000000    0.00000015
     atom   38 type  1   force =     0.00000000   -0.00000005    0.00000029
     atom   39 type  1   force =     0.00000002   -0.00000000    0.00000005
     atom   40 type  1   force =     0.00000004   -0.00000000    0.00000004
     atom   41 type  1   force =    -0.00000000   -0.00000003    0.00000024
     atom   42 type  1   force =     0.00000004    0.00000001   -0.00000045
     atom   43 type  1   force =    -0.00000004   -0.00000000    0.00000043
     atom   44 type  1   force =    -0.00000000    0.00000003   -0.00000024
     atom   45 type  1   force =    -0.00000005   -0.00000000   -0.00000004
     atom   46 type  1   force =    -0.00000001    0.00000001   -0.00000005
     atom   47 type  1   force =    -0.00000000    0.00000004   -0.00000027
     atom   48 type  1   force =    -0.00000003    0.00000001   -0.00000014

     Total force =     0.001116     Total SCF correction =     0.000002
     Energy error            =      5.0E-06 Ry
     Gradient error          =      2.7E-04 Ry/Bohr

     bfgs converged in  34 scf cycles and  33 bfgs steps
     (criteria: energy <  1.0E-05 Ry, force <  3.9E-04 Ry/Bohr)

     End of BFGS Geometry Optimization

     Final energy             =    -721.9195006496 Ry

     File ./Li/Lithium.bfgs deleted, as requested
Begin final coordinates

ATOMIC_POSITIONS (angstrom)
Li              -0.0000000100       -0.0004588644       25.0172453274
Li               2.4296211195        1.4026335441       21.2567111477
Li               4.8580444100        2.8049790144       23.2075752429
Li               0.0000000100        0.0001438350       22.0044401858
Li               2.4291395620        1.4024929318       24.1359743445
Li               4.8580445000        2.8056021663       20.2757348018
Li              -0.0000000000       -0.0008313976       30.9312542721
Li               2.4289167834        1.4022884075       27.0710592189
Li               4.8580444100        2.8046460662       29.2026877718
Li              -0.0000000100       -0.0001612999       27.9994750760
Li               2.4284455174        1.4021594157       29.9502733873
Li               4.8580444200        2.8052487693       26.1898347259
Li               2.4295988498        4.2071421790       25.0183277617
Li               4.8580443900        5.6094004537       21.2581507554
Li               7.2865966829        7.0121693470       23.2063283155
Li               2.4290197570        4.2073641275       22.0050901422
Li               4.8580444100        5.6092831842       24.1364903590
Li               7.2856409871        7.0123809373       20.2740609914
Li               2.4304236326        4.2068361871       30.9329160362
Li               4.8580444000        5.6098838567       27.0705151720
Li               7.2870789405        7.0118243256       29.2018682744
Li               2.4294857423        4.2069692017       28.0007193207
Li               4.8580444000        5.6097896180       29.9487937014
Li               7.2864803488        7.0120331099       26.1886847747
Li               4.8580444000        0.0005889201       25.0188134830
Li               7.2864677005        1.4026335241       21.2567112977
Li               9.7160888200        2.8047148748       23.2057128490
Li               4.8580443900       -0.0000047050       22.0053133247
Li               7.2869492580        1.4024929318       24.1359744245
Li               9.7160887400        2.8038956456       20.2731328484
Li               4.8580444000        0.0008170607       30.9338200893
Li               7.2871720366        1.4022884075       27.0710592689
Li               9.7160888300        2.8047586794       29.2018160368
Li               4.8580444000        0.0001345764       28.0013328707
Li               7.2876433026        1.4021594057       29.9502734273
Li               9.7160888200        2.8041864362       26.1882860347
Li               7.2864899603        4.2071421890       25.0183277617
Li               9.7160888400        5.6099543792       21.2542835555
Li              12.1455809671        7.0121693570       23.2063283255
Li               7.2870690530        4.2073641475       22.0050901522
Li               9.7160888300        5.6098892864       24.1351050456
Li              12.1465366629        7.0123810473       20.2740610014
Li               7.2856651774        4.2068361971       30.9329160262
Li               9.7160888300        5.6093256952       27.0718473294
Li              12.1450987096        7.0118243256       29.2018682744
Li               7.2866030777        4.2069692017       28.0007193107
Li               9.7160888300        5.6092196788       29.9525719592
Li              12.1456973112        7.0120331199       26.1886847747
End final coordinates

     Writing all to output data dir ./Li/Lithium.save/ :
     XML data file

     General routines

     Parallel routines

     PAW routines

     Environ routines

   This run was terminated on:  21:24:29   3Jan2025

   JOB DONE.