     Program PWSCF v.7.4 starts on 23Jan2025 at  0:35:53

     Reading input from espresso.pwi
Warning: card &CELL ignored
Warning: card    PRESS_CONV_THR   = 0.1 ignored
Warning: card    CELL_DOFREE      = 'ALL' ignored
Warning: card / ignored
Warning: card &FCP ignored
Warning: card / ignored
Warning: card &RISM ignored
Warning: card / ignored

     Current dimensions of program PWSCF are:
     Max number of different atomic species (ntypx) = 10
     Max number of k-points (npk) =  40000
     Max angular momentum in pseudopotentials (lmaxx) =  4

     IMPORTANT: XC functional enforced from input :
     Exchange-correlation= PBE
                           (   1   4   3   4   0   0   0)
     Any further DFT definition will be discarded
     Please, verify this is what you really want

     Found identity + (  0.0000  0.5000 -0.0000) symmetry
     This is a supercell, fractional translations are disabled
     Message from routine setup:
     using ibrav=0 with symmetry is DISCOURAGED, use correct ibrav instead

     K-points division:     npool     =       2
     R & G space division:  proc/nbgrp/npool/nimage =     192
     Subspace diagonalization in iterative solution of the eigenvalue problem:
     a serial algorithm will be used

     Using Slab Decomposition

     bravais-lattice index     =            0
     lattice parameter (alat)  =      12.9830  a.u.
     unit-cell volume          =   20789.7695 (a.u.)^3
     number of atoms/cell      =           32
     number of atomic types    =            1
     number of electrons       =        96.00
     number of Kohn-Sham states=           72
     kinetic-energy cutoff     =      80.0000  Ry
     charge density cutoff     =     800.0000  Ry
     scf convergence threshold =      1.0E-06
     mixing beta               =       0.2000
     number of iterations used =            8  local-TF  mixing
     energy convergence thresh.=      1.0E-05
     force convergence thresh. =      3.9E-04
     Exchange-correlation= PBE
                           (   1   4   3   4   0   0   0)
     nstep                     =           50

     celldm(1)=  12.983009  celldm(2)=   0.000000  celldm(3)=   0.000000
     celldm(4)=   0.000000  celldm(5)=   0.000000  celldm(6)=   0.000000

     crystal axes: (cart. coord. in units of alat)
               a(1) = (   1.000000   0.000000   0.000000 )
               a(2) = (   0.000000   1.000000   0.000000 )
               a(3) = (   0.000000   0.000000   9.500000 )

     reciprocal axes: (cart. coord. in units 2 pi/alat)
               b(1) = (  1.000000  0.000000  0.000000 )
               b(2) = (  0.000000  1.000000  0.000000 )
               b(3) = (  0.000000  0.000000  0.105263 )

     PseudoPot. # 1 for Li read from file:
     /iridisfs/home/ba3g18/Repos/Pseudopotentials/pslibrary.1.0.0/pbe/PSEUDOPOTENTIALS/Li.pbe-sl-kjpaw_psl.1.0.0.UPF
     MD5 check sum: 3f4d2cafebb47c6c3aa8ed472e6f074d
     Pseudo is Projector augmented-wave, Zval =  3.0
     Generated using 'atomic' code by A. Dal Corso  v.7.4
     Shape of augmentation charge: PSQ
     Using radial grid of 1017 points,  4 beta functions with:
                l(1) =   0
                l(2) =   0
                l(3) =   1
                l(4) =   1
     Q(r) pseudized with 0 coefficients

     atomic species   valence    mass     pseudopotential
     Li                3.00     6.94000     Li( 1.00)

      8 Sym. Ops. (no inversion) found

   Cartesian axes

     site n.     atom                  positions (alat units)
         1        Li     tau(   1) = (  -0.0000000  -0.0000000   4.1303463  )
         2        Li     tau(   2) = (   0.2499997   0.2499997   3.8684838  )
         3        Li     tau(   3) = (  -0.0000000  -0.0000000   4.6245458  )
         4        Li     tau(   4) = (   0.2499999   0.2499999   4.3780532  )
         5        Li     tau(   5) = (  -0.0000000  -0.0000000   5.1219470  )
         6        Li     tau(   6) = (   0.2500003   0.2500003   4.8754552  )
         7        Li     tau(   7) = (  -0.0000000  -0.0000000   5.6315141  )
         8        Li     tau(   8) = (   0.2499989   0.2499989   5.3696537  )
         9        Li     tau(   9) = (  -0.0000000   0.5000000   4.1303454  )
        10        Li     tau(  10) = (   0.2499997   0.7500003   3.8684838  )
        11        Li     tau(  11) = (  -0.0000000   0.5000000   4.6245450  )
        12        Li     tau(  12) = (   0.2499999   0.7500000   4.3780532  )
        13        Li     tau(  13) = (  -0.0000000   0.5000000   5.1219491  )
        14        Li     tau(  14) = (   0.2500003   0.7499997   4.8754552  )
        15        Li     tau(  15) = (  -0.0000000   0.5000000   5.6315132  )
        16        Li     tau(  16) = (   0.2499989   0.7500011   5.3696537  )
        17        Li     tau(  17) = (   0.5000000  -0.0000000   4.1303454  )
        18        Li     tau(  18) = (   0.7500003   0.2499997   3.8684838  )
        19        Li     tau(  19) = (   0.5000000  -0.0000000   4.6245450  )
        20        Li     tau(  20) = (   0.7500000   0.2499999   4.3780532  )
        21        Li     tau(  21) = (   0.5000000  -0.0000000   5.1219491  )
        22        Li     tau(  22) = (   0.7499997   0.2500003   4.8754552  )
        23        Li     tau(  23) = (   0.5000000  -0.0000000   5.6315132  )
        24        Li     tau(  24) = (   0.7500011   0.2499989   5.3696537  )
        25        Li     tau(  25) = (   0.5000000   0.5000000   4.1303456  )
        26        Li     tau(  26) = (   0.7500003   0.7500003   3.8684838  )
        27        Li     tau(  27) = (   0.5000000   0.5000000   4.6245456  )
        28        Li     tau(  28) = (   0.7500000   0.7500000   4.3780532  )
        29        Li     tau(  29) = (   0.5000000   0.5000000   5.1219511  )
        30        Li     tau(  30) = (   0.7499997   0.7499997   4.8754552  )
        31        Li     tau(  31) = (   0.5000000   0.5000000   5.6315116  )
        32        Li     tau(  32) = (   0.7500011   0.7500011   5.3696537  )

     number of k points=    21  Marzari-Vanderbilt smearing, width (Ry)=  0.0100
                       cart. coord. in units 2pi/alat
        k(    1) = (   0.0000000   0.0000000   0.0000000), wk =   0.0200000
        k(    2) = (   0.0000000   0.1000000   0.0000000), wk =   0.0800000
        k(    3) = (   0.0000000   0.2000000   0.0000000), wk =   0.0800000
        k(    4) = (   0.0000000   0.3000000   0.0000000), wk =   0.0800000
        k(    5) = (   0.0000000   0.4000000   0.0000000), wk =   0.0800000
        k(    6) = (   0.0000000  -0.5000000   0.0000000), wk =   0.0400000
        k(    7) = (   0.1000000   0.1000000   0.0000000), wk =   0.0800000
        k(    8) = (   0.1000000   0.2000000   0.0000000), wk =   0.1600000
        k(    9) = (   0.1000000   0.3000000   0.0000000), wk =   0.1600000
        k(   10) = (   0.1000000   0.4000000   0.0000000), wk =   0.1600000
        k(   11) = (   0.1000000  -0.5000000   0.0000000), wk =   0.0800000
        k(   12) = (   0.2000000   0.2000000   0.0000000), wk =   0.0800000
        k(   13) = (   0.2000000   0.3000000   0.0000000), wk =   0.1600000
        k(   14) = (   0.2000000   0.4000000   0.0000000), wk =   0.1600000
        k(   15) = (   0.2000000  -0.5000000   0.0000000), wk =   0.0800000
        k(   16) = (   0.3000000   0.3000000   0.0000000), wk =   0.0800000
        k(   17) = (   0.3000000   0.4000000   0.0000000), wk =   0.1600000
        k(   18) = (   0.3000000  -0.5000000   0.0000000), wk =   0.0800000
        k(   19) = (   0.4000000   0.4000000   0.0000000), wk =   0.0800000
        k(   20) = (   0.4000000  -0.5000000   0.0000000), wk =   0.0800000
        k(   21) = (  -0.5000000  -0.5000000   0.0000000), wk =   0.0200000

     Initial potential from superposition of free atoms

     starting charge      95.8525, renormalised to      96.0000

     negative rho (up, down):  3.611E-03 0.000E+00
     Starting wfcs are  160 randomized atomic wfcs
     Checking if some PAW data can be deallocated...

     Self-consistent Calculation

     iteration #  1     ecut=    80.00 Ry     beta= 0.20
     Davidson diagonalization with overlap
     ethr =  1.00E-02,  avg # of iterations =  3.7

     negative rho (up, down):  1.095E-03 0.000E+00

     total energy              =    -481.36659009 Ry
     estimated scf accuracy    <       4.48180908 Ry

[...]

     iteration # 17     ecut=    80.00 Ry     beta= 0.20
     Davidson diagonalization with overlap
     c_bands:  1 eigenvalues not converged
     c_bands:  1 eigenvalues not converged
     c_bands:  1 eigenvalues not converged
     c_bands:  1 eigenvalues not converged
     c_bands:  1 eigenvalues not converged
     c_bands:  1 eigenvalues not converged
     ethr =  2.32E-05,  avg # of iterations = 13.7

[...]

     iteration # 25     ecut=    80.00 Ry     beta= 0.20
     Davidson diagonalization with overlap
     c_bands:  1 eigenvalues not converged
     ethr =  7.10E-07,  avg # of iterations = 11.2

[...]

     End of self-consistent calculation

          k = 0.0000 0.0000 0.0000 (251451 PWs)   bands (ev):

   -49.3978 -49.3978 -49.3964 -49.3964 -49.3963 -49.3963 -49.3950 -49.3949
   -48.6273 -48.6267 -48.6207 -48.6207 -48.6206 -48.6206 -48.6192 -48.6191
   -48.6132 -48.6078 -48.6076 -48.6076 -48.6075 -48.6075 -48.6061 -48.6060
   -48.5978 -48.5975 -48.5975 -48.5975 -48.5975 -48.5960 -48.5960 -48.5877
    -5.5760  -5.2274  -4.6606  -3.8892  -3.1676  -3.1676  -3.1676  -3.1676
    -2.9658  -2.8446  -2.8446  -2.8446  -2.8446  -2.3605  -2.3605  -2.3605
    -2.3605  -2.0170  -1.8991  -1.8991  -1.8991  -1.8991  -1.7305  -1.7305
    -1.2662  -1.2662  -1.0777  -0.5153  -0.5153   0.0225   0.2689   0.2689
     0.2690   0.2690   0.4674   0.4674   0.6344   0.7014   0.7189   0.8835

[...]

          k =-0.5000-0.5000 0.0000 (250732 PWs)   bands (ev):

[...]

     the Fermi energy is    -2.0982 ev

!    total energy              =    -481.21191574 Ry
     total all-electron energy =      -481.212176 Ry
     estimated scf accuracy    <       0.00000065 Ry
     smearing contrib. (-TS)   =      -0.00009434 Ry
     internal energy E=F+TS    =    -481.21182140 Ry

     The total energy is F=E-TS. E is the sum of the following terms:
     one-electron contribution =   -9154.39388002 Ry
     hartree contribution      =    4527.37031008 Ry
     xc contribution           =    -114.68477886 Ry
     ewald contribution        =    4257.67435971 Ry
     one-center paw contrib.   =       2.82216768 Ry

     convergence has been achieved in  33 iterations

     Forces acting on atoms (cartesian axes, Ry/au):

     atom    1 type  1   force =     0.00000000    0.00000000    0.00005876
     atom    2 type  1   force =     0.00000089    0.00000089    0.00010317
     atom    3 type  1   force =     0.00000000    0.00000000   -0.00044220
     atom    4 type  1   force =     0.00000024    0.00000024   -0.00046284
     atom    5 type  1   force =     0.00000000    0.00000000    0.00047140
     atom    6 type  1   force =     0.00000133    0.00000133    0.00044278
     atom    7 type  1   force =     0.00000000    0.00000000   -0.00009836
     atom    8 type  1   force =     0.00000135    0.00000135   -0.00006687
     atom    9 type  1   force =     0.00000000    0.00000000    0.00005728
     atom   10 type  1   force =     0.00000089   -0.00000089    0.00010317
     atom   11 type  1   force =     0.00000000    0.00000000   -0.00044101
     atom   12 type  1   force =     0.00000024   -0.00000024   -0.00046284
     atom   13 type  1   force =     0.00000000    0.00000000    0.00046633
     atom   14 type  1   force =     0.00000133   -0.00000133    0.00044278
     atom   15 type  1   force =     0.00000000    0.00000000   -0.00010143
     atom   16 type  1   force =     0.00000135   -0.00000135   -0.00006687
     atom   17 type  1   force =     0.00000000    0.00000000    0.00005728
     atom   18 type  1   force =    -0.00000089    0.00000089    0.00010317
     atom   19 type  1   force =     0.00000000    0.00000000   -0.00044101
     atom   20 type  1   force =    -0.00000024    0.00000024   -0.00046284
     atom   21 type  1   force =     0.00000000    0.00000000    0.00046633
     atom   22 type  1   force =    -0.00000133    0.00000133    0.00044278
     atom   23 type  1   force =     0.00000000    0.00000000   -0.00010143
     atom   24 type  1   force =    -0.00000135    0.00000135   -0.00006687
     atom   25 type  1   force =     0.00000000    0.00000000    0.00006248
     atom   26 type  1   force =    -0.00000089   -0.00000089    0.00010317
     atom   27 type  1   force =     0.00000000    0.00000000   -0.00044080
     atom   28 type  1   force =    -0.00000024   -0.00000024   -0.00046284
     atom   29 type  1   force =     0.00000000    0.00000000    0.00046144
     atom   30 type  1   force =    -0.00000133   -0.00000133    0.00044278
     atom   31 type  1   force =     0.00000000    0.00000000   -0.00010002
     atom   32 type  1   force =    -0.00000135   -0.00000135   -0.00006687

     Total force =     0.001845     Total SCF correction =     0.000457
     SCF correction compared to forces is large: reduce conv_thr to get better values

     BFGS Geometry Optimization
     Energy error            =      3.4E-06 Ry
     Gradient error          =      4.7E-04 Ry/Bohr

     number of scf cycles    =   1
     number of bfgs steps    =   0

     energy             new  =    -481.2119157402 Ry

     new trust radius        =       0.0004714020 bohr
     new conv_thr            =       0.0000010000 Ry

ATOMIC_POSITIONS (angstrom)
Li              -0.0000000700       -0.0000000700       28.3768009828
Li               1.7175767011        1.7175767011       26.5777472742
Li              -0.0000000700       -0.0000000700       31.7718408491
Li               1.7175778174        1.7175778174       30.0783483842
Li              -0.0000000700       -0.0000000700       35.1896257452
Li               1.7175809645        1.7175809645       33.4961351890
Li              -0.0000000600       -0.0000000600       38.6902091396
Li               1.7175709747        1.7175709747       36.8911631556
Li              -0.0000000700        3.4351561600       28.3767935418
Li               1.7175767011        5.1527356289       26.5777472942
Li              -0.0000000700        3.4351561700       31.7718360286
Li               1.7175778174        5.1527345126       30.0783483742
Li              -0.0000000700        3.4351561800       35.1896374998
Li               1.7175809645        5.1527313755       33.4961351890
Li              -0.0000000600        3.4351561700       38.6902015549
Li               1.7175709747        5.1527413653       36.8911631656
Li               3.4351561600       -0.0000000700       28.3767935418
Li               5.1527356289        1.7175767011       26.5777472942
Li               3.4351561700       -0.0000000700       31.7718360286
Li               5.1527345126        1.7175778174       30.0783483742
Li               3.4351561800       -0.0000000700       35.1896374998
Li               5.1527313755        1.7175809645       33.4961351890
Li               3.4351561700       -0.0000000600       38.6902015549
Li               5.1527413653        1.7175709747       36.8911631656
Li               3.4351561600        3.4351561600       28.3767981228
Li               5.1527356289        5.1527356289       26.5777473042
Li               3.4351561700        3.4351561700       31.7718402700
Li               5.1527345126        5.1527345126       30.0783483742
Li               3.4351561800        3.4351561800       35.1896488338
Li               5.1527313755        5.1527313755       33.4961351890
Li               3.4351561700        3.4351561700       38.6901910942
Li               5.1527413653        5.1527413653       36.8911631656

     Message from routine punch:
     Nothing written, as per user request (disk_io='none')
     NEW-OLD atomic charge density approx. for the potential

[...]

     Self-consistent Calculation

[...]

     Threshold (ethr) on eigenvalues was too large:
     Diagonalizing with lowered threshold

     Davidson diagonalization with overlap
     ethr =  1.08E-09,  avg # of iterations =  4.1

[...]

     total energy              =    -481.21191930 Ry
     estimated scf accuracy    <       0.00000142 Ry

     iteration #  2     ecut=    80.00 Ry     beta= 0.20
     Davidson diagonalization with overlap
     ethr =  1.48E-09,  avg # of iterations =  1.0

     negative rho (up, down):  4.489E-04 0.000E+00

     End of self-consistent calculation

[...]

          k = 0.4000-0.5000 0.0000 (250894 PWs)   bands (ev):

[...]

          k =-0.5000-0.5000 0.0000 (250732 PWs)   bands (ev):

   -49.3915 -49.3915 -49.3915 -49.3915 -49.3914 -49.3914 -49.3914 -49.3914
   -48.6170 -48.6170 -48.6170 -48.6170 -48.6168 -48.6168 -48.6168 -48.6168
   -48.6040 -48.6040 -48.6040 -48.6040 -48.6027 -48.6027 -48.6027 -48.6027
   -48.5930 -48.5930 -48.5930 -48.5930 -48.5864 -48.5864 -48.5863 -48.5863
    -4.3865  -4.3865  -4.3865  -4.3865  -4.0311  -4.0311  -4.0311  -4.0311
    -3.4559  -3.4559  -3.4559  -3.4559  -2.6893  -2.6893  -2.6893  -2.6893
    -1.7701  -1.7701  -1.7701  -1.7701  -0.8233  -0.8233  -0.8233  -0.8233
    -0.1764  -0.1764  -0.1764  -0.1764   0.0770   0.0770   0.0770   0.0770
     0.2857   0.2857   0.2857   0.2857   1.0175   1.0175   1.0175   1.0175

     the Fermi energy is    -2.0942 ev

!    total energy              =    -481.21191869 Ry
     total all-electron energy =      -481.212179 Ry
     estimated scf accuracy    <       0.00000079 Ry
     smearing contrib. (-TS)   =      -0.00009178 Ry
     internal energy E=F+TS    =    -481.21182691 Ry

     The total energy is F=E-TS. E is the sum of the following terms:
     one-electron contribution =   -9154.36511257 Ry
     hartree contribution      =    4527.35468148 Ry
     xc contribution           =    -114.68378198 Ry
     ewald contribution        =    4257.66030499 Ry
     one-center paw contrib.   =       2.82208117 Ry

     convergence has been achieved in   2 iterations

     Forces acting on atoms (cartesian axes, Ry/au):

     atom    1 type  1   force =     0.00000000    0.00000000   -0.00000624
     atom    2 type  1   force =    -0.00000049   -0.00000049    0.00020896
     atom    3 type  1   force =     0.00000000    0.00000000   -0.00030506
     atom    4 type  1   force =    -0.00000007   -0.00000007   -0.00033243
     atom    5 type  1   force =     0.00000000    0.00000000    0.00031260
     atom    6 type  1   force =    -0.00000073   -0.00000073    0.00027518
     atom    7 type  1   force =     0.00000000    0.00000000   -0.00016139
     atom    8 type  1   force =    -0.00000164   -0.00000164    0.00000892
     atom    9 type  1   force =     0.00000000    0.00000000   -0.00000557
     atom   10 type  1   force =    -0.00000049    0.00000049    0.00020896
     atom   11 type  1   force =     0.00000000    0.00000000   -0.00030628
     atom   12 type  1   force =    -0.00000007    0.00000007   -0.00033243
     atom   13 type  1   force =     0.00000000    0.00000000    0.00031223
     atom   14 type  1   force =    -0.00000073    0.00000073    0.00027518
     atom   15 type  1   force =     0.00000000    0.00000000   -0.00016085
     atom   16 type  1   force =    -0.00000164    0.00000164    0.00000892
     atom   17 type  1   force =     0.00000000    0.00000000   -0.00000557
     atom   18 type  1   force =     0.00000049   -0.00000049    0.00020896
     atom   19 type  1   force =     0.00000000    0.00000000   -0.00030628
     atom   20 type  1   force =     0.00000007   -0.00000007   -0.00033243
     atom   21 type  1   force =     0.00000000    0.00000000    0.00031223
     atom   22 type  1   force =     0.00000073   -0.00000073    0.00027518
     atom   23 type  1   force =     0.00000000    0.00000000   -0.00016085
     atom   24 type  1   force =     0.00000164   -0.00000164    0.00000892
     atom   25 type  1   force =     0.00000000    0.00000000   -0.00000672
     atom   26 type  1   force =     0.00000049    0.00000049    0.00020896
     atom   27 type  1   force =     0.00000000    0.00000000   -0.00030699
     atom   28 type  1   force =     0.00000007    0.00000007   -0.00033243
     atom   29 type  1   force =     0.00000000    0.00000000    0.00031319
     atom   30 type  1   force =     0.00000073    0.00000073    0.00027518
     atom   31 type  1   force =     0.00000000    0.00000000   -0.00016100
     atom   32 type  1   force =     0.00000164    0.00000164    0.00000892

     Total force =     0.001338     Total SCF correction =     0.001284
     SCF correction compared to forces is large: reduce conv_thr to get better values
     Energy error            =      3.0E-06 Ry
     Gradient error          =      3.3E-04 Ry/Bohr

     bfgs converged in   2 scf cycles and   1 bfgs steps
     (criteria: energy <  1.0E-05 Ry, force <  3.9E-04 Ry/Bohr)

     End of BFGS Geometry Optimization

     Final energy             =    -481.2119186933 Ry

     File ./pwscf.bfgs deleted, as requested
Begin final coordinates

ATOMIC_POSITIONS (angstrom)
Li              -0.0000000700       -0.0000000700       28.3768009828
Li               1.7175767011        1.7175767011       26.5777472742
Li              -0.0000000700       -0.0000000700       31.7718408491
Li               1.7175778174        1.7175778174       30.0783483842
Li              -0.0000000700       -0.0000000700       35.1896257452
Li               1.7175809645        1.7175809645       33.4961351890
Li              -0.0000000600       -0.0000000600       38.6902091396
Li               1.7175709747        1.7175709747       36.8911631556
Li              -0.0000000700        3.4351561600       28.3767935418
Li               1.7175767011        5.1527356289       26.5777472942
Li              -0.0000000700        3.4351561700       31.7718360286
Li               1.7175778174        5.1527345126       30.0783483742
Li              -0.0000000700        3.4351561800       35.1896374998
Li               1.7175809645        5.1527313755       33.4961351890
Li              -0.0000000600        3.4351561700       38.6902015549
Li               1.7175709747        5.1527413653       36.8911631656
Li               3.4351561600       -0.0000000700       28.3767935418
Li               5.1527356289        1.7175767011       26.5777472942
Li               3.4351561700       -0.0000000700       31.7718360286
Li               5.1527345126        1.7175778174       30.0783483742
Li               3.4351561800       -0.0000000700       35.1896374998
Li               5.1527313755        1.7175809645       33.4961351890
Li               3.4351561700       -0.0000000600       38.6902015549
Li               5.1527413653        1.7175709747       36.8911631656
Li               3.4351561600        3.4351561600       28.3767981228
Li               5.1527356289        5.1527356289       26.5777473042
Li               3.4351561700        3.4351561700       31.7718402700
Li               5.1527345126        5.1527345126       30.0783483742
Li               3.4351561800        3.4351561800       35.1896488338
Li               5.1527313755        5.1527313755       33.4961351890
Li               3.4351561700        3.4351561700       38.6901910942
Li               5.1527413653        5.1527413653       36.8911631656
End final coordinates

     Message from routine punch:
     Nothing written, as per user request (disk_io='none')

     General routines

     Parallel routines

   This run was terminated on:   0:38:50  23Jan2025

   JOB DONE.