     Program PWSCF v.7.4 starts on  1Jan2025 at 19:36:43

     Reading input from espresso.pwi
Warning: card &CELL ignored
Warning: card    PRESS_CONV_THR   = 0.1 ignored
Warning: card    CELL_DOFREE      = 'ALL' ignored
Warning: card / ignored
Warning: card &FCP ignored
Warning: card / ignored
Warning: card &RISM ignored
Warning: card / ignored

     Current dimensions of program PWSCF are:
     Max number of different atomic species (ntypx) = 10
     Max number of k-points (npk) =  40000
     Max angular momentum in pseudopotentials (lmaxx) =  4

     IMPORTANT: XC functional enforced from input :
     Exchange-correlation= PBE
                           (   1   4   3   4   0   0   0)
     Any further DFT definition will be discarded
     Please, verify this is what you really want

     Reading input from environ.in:
     * using ionic solvent mode
     * setting boundary derivatives method to SSCS default
     * setting electrolyte-boundary derivatives method to SSCS default

Environ Warning (1001): card EOF ignored

     K-points division:     npool     =       2
     R & G space division:  proc/nbgrp/npool/nimage =     192
     Subspace diagonalization in iterative solution of the eigenvalue problem:
     a serial algorithm will be used

     Using Slab Decomposition

     bravais-lattice index     =            8
     lattice parameter (alat)  =      11.2436  a.u.
     unit-cell volume          =   18353.5531 (a.u.)^3
     number of atoms/cell      =           24
     number of atomic types    =            1
     number of electrons       =        72.00
     number of Kohn-Sham states=           54
     kinetic-energy cutoff     =      80.0000  Ry
     charge density cutoff     =     800.0000  Ry
     scf convergence threshold =      1.0E-06
     mixing beta               =       0.2000
     number of iterations used =            8  local-TF  mixing
     energy convergence thresh.=      1.0E-05
     force convergence thresh. =      3.9E-04
     Exchange-correlation= PBE
                           (   1   4   3   4   0   0   0)
     nstep                     =          999

                                  Environ Setup Summary

          O. Andreussi, I. Dabo and N. Marzari, J. Chem. Phys. 136, 064102 (2012)
          F. Nattino, M. Truscott, N. Marzari, and O. Andreussi, J. Chem. Phys. 150, 041722 (2019)

     in publications or presentations arising from this work.

     Parameters

     compensation onset threshold      =               0.1000E+00
     static permittivity               =                    89.90
     surface tension in input (dyn/cm) =                    37.30
     surface tension in internal units =               0.4792E-04

     Solvent Boundary

     solvent mode                      =                    ionic
     derivatives method                =                   lowmem
     electrolyte derivatives method    =                   lowmem
     numerical core for derivatives    =                      fft
     switching function adopted        =                     SCCS
     density limit for vacuum region   =               0.5000E-02
     density limit for bulk solvent    =               0.1000E-03
     soft-sphere radius mode           =                    bondi
     soft-sphere softness              =                     0.50
     alpha                             =                     1.32

     Electrostatic Setup

     electrostatic problem to solve    =                    modpb
     numerical solver adopted          =                   newton
     type of auxiliary density adopted =                     none
     numerical core for poisson        =                      fft
     adopting a nested solver scheme
     inner solver                      =                       cg
     inner core                        =                      fft
     type of pbc corrections           =                parabolic
     numerical core for corrections    =                      1da

     >>>>> Grand-Canonical SCF is activated <<<<<
     Initial Total Charge  =     0.000000 e
     Target Fermi Energy   =    -3.404000 eV
     Thr. of Fermi Energy  =     0.001000 eV
     Wave-shift of Kerker  =     0.400000 bohr^-1
     Wave-shift of Hartree =     1.500000 bohr^-1
     Mixing Rate of Fermi  =     0.050000

     celldm(1)=  11.243615  celldm(2)=   1.632993  celldm(3)=   7.907113
     celldm(4)=   0.000000  celldm(5)=   0.000000  celldm(6)=   0.000000

     crystal axes: (cart. coord. in units of alat)
               a(1) = (   1.000000   0.000000   0.000000 )
               a(2) = (   0.000000   1.632993   0.000000 )
               a(3) = (   0.000000   0.000000   7.907113 )

     reciprocal axes: (cart. coord. in units 2 pi/alat)
               b(1) = (  1.000000  0.000000  0.000000 )
               b(2) = (  0.000000  0.612372  0.000000 )
               b(3) = (  0.000000  0.000000  0.126468 )

     PseudoPot. # 1 for Li read from file:
     /work/e89/e89/ba3g18/Repos/Pseudopotentials/Pslibrary/Li.pbe-sl-kjpaw_psl.1.0.0.UPF
     MD5 check sum: 3f4d2cafebb47c6c3aa8ed472e6f074d
     Pseudo is Projector augmented-wave, Zval =  3.0
     Generated using 'atomic' code by A. Dal Corso  v.7.4
     Shape of augmentation charge: PSQ
     Using radial grid of 1017 points,  4 beta functions with:
                l(1) =   0
                l(2) =   0
                l(3) =   1
                l(4) =   1
     Q(r) pseudized with 0 coefficients

     atomic species   valence    mass     pseudopotential
     Li                3.00     6.94000     Li( 1.00)

      2 Sym. Ops. (no inversion) found

                                    s                        frac. trans.

      isym =  1     identity

 cryst.   s( 1) = (     1          0          0      )
                  (     0          1          0      )
                  (     0          0          1      )

 cart.    s( 1) = (  1.0000000  0.0000000  0.0000000 )
                  (  0.0000000  1.0000000  0.0000000 )
                  (  0.0000000  0.0000000  1.0000000 )

      isym =  2     inv. 180 deg rotation - cart. axis [0,1,0]

 cryst.   s( 2) = (     1          0          0      )
                  (     0         -1          0      )
                  (     0          0          1      )

 cart.    s( 2) = (  1.0000000  0.0000000  0.0000000 )
                  (  0.0000000 -1.0000000  0.0000000 )
                  (  0.0000000  0.0000000  1.0000000 )

     point group C_s (m)
     there are  2 classes
     the character table:

       E     s
A'     1.00  1.00
A''    1.00 -1.00

     the symmetry operations in each class and the name of the first element:

     E        1
          identity
     s        2
          inv. 180 deg rotation - cart. axis [0,1,0]

   Cartesian axes

     site n.     atom                  positions (alat units)
         1        Li     tau(   1) = (   0.5182030   0.8164966   4.5308744  )
         2        Li     tau(   2) = (   0.1484654   0.4082529   3.3762391  )
         3        Li     tau(   3) = (   0.3536362   0.8164966   3.6079977  )
         4        Li     tau(   4) = (   0.4981139   0.4082423   3.8321489  )
         5        Li     tau(   5) = (   0.1685452   0.8164966   4.0749697  )
         6        Li     tau(   6) = (   0.3130291   0.4082427   4.2990971  )
         7        Li     tau(   7) = (   0.5182049   1.6329931   4.5308630  )
         8        Li     tau(   8) = (   0.1484653   1.2247404   3.3762391  )
         9        Li     tau(   9) = (   0.3536394   1.6329931   3.6080070  )
        10        Li     tau(  10) = (   0.4981139   1.2247510   3.8321490  )
        11        Li     tau(  11) = (   0.1685569   1.6329931   4.0749759  )
        12        Li     tau(  12) = (   0.3130291   1.2247506   4.2990971  )
        13        Li     tau(  13) = (   1.0181931   0.8164966   4.5308697  )
        14        Li     tau(  14) = (   0.6484758   0.4082507   3.3762402  )
        15        Li     tau(  15) = (   0.8536374   0.8164966   3.6080038  )
        16        Li     tau(  16) = (   0.9981175   0.4082452   3.8321508  )
        17        Li     tau(  17) = (   0.6685430   0.8164966   4.0749758  )
        18        Li     tau(  18) = (   0.8130327   0.4082450   4.2991008  )
        19        Li     tau(  19) = (   1.0181896   1.6329931   4.5308666  )
        20        Li     tau(  20) = (   0.6484757   1.2247426   3.3762402  )
        21        Li     tau(  21) = (   0.8536334   1.6329931   3.6079943  )
        22        Li     tau(  22) = (   0.9981175   1.2247481   3.8321508  )
        23        Li     tau(  23) = (   0.6685499   1.6329931   4.0749662  )
        24        Li     tau(  24) = (   0.8130327   1.2247482   4.2991008  )

   Crystallographic axes

     site n.     atom                  positions (cryst. coord.)
         1        Li     tau(   1) = (  0.5182030  0.5000001  0.5730125  )
         2        Li     tau(   2) = (  0.1484654  0.2500028  0.4269876  )
         3        Li     tau(   3) = (  0.3536362  0.5000001  0.4562977  )
         4        Li     tau(   4) = (  0.4981139  0.2499963  0.4846458  )
         5        Li     tau(   5) = (  0.1685452  0.5000001  0.5153550  )
         6        Li     tau(   6) = (  0.3130291  0.2499966  0.5437000  )
         7        Li     tau(   7) = (  0.5182049  1.0000001  0.5730111  )
         8        Li     tau(   8) = (  0.1484653  0.7499973  0.4269876  )
         9        Li     tau(   9) = (  0.3536394  1.0000001  0.4562989  )
        10        Li     tau(  10) = (  0.4981139  0.7500038  0.4846458  )
        11        Li     tau(  11) = (  0.1685569  1.0000001  0.5153557  )
        12        Li     tau(  12) = (  0.3130291  0.7500036  0.5437000  )
        13        Li     tau(  13) = (  1.0181931  0.5000001  0.5730119  )
        14        Li     tau(  14) = (  0.6484758  0.2500015  0.4269877  )
        15        Li     tau(  15) = (  0.8536374  0.5000001  0.4562985  )
        16        Li     tau(  16) = (  0.9981175  0.2499981  0.4846460  )
        17        Li     tau(  17) = (  0.6685430  0.5000001  0.5153557  )
        18        Li     tau(  18) = (  0.8130327  0.2499980  0.5437005  )
        19        Li     tau(  19) = (  1.0181896  1.0000001  0.5730115  )
        20        Li     tau(  20) = (  0.6484757  0.7499987  0.4269877  )
        21        Li     tau(  21) = (  0.8536334  1.0000001  0.4562973  )
        22        Li     tau(  22) = (  0.9981175  0.7500020  0.4846460  )
        23        Li     tau(  23) = (  0.6685499  1.0000001  0.5153545  )
        24        Li     tau(  24) = (  0.8130327  0.7500021  0.5437005  )

     number of k points=    24  Marzari-Vanderbilt smearing, width (Ry)=  0.0100
                       cart. coord. in units 2pi/alat
        k(    1) = (   0.0000000   0.0000000   0.0000000), wk =   0.0259740
        k(    2) = (   0.0000000   0.0874818   0.0000000), wk =   0.0519481
        k(    3) = (   0.0000000   0.1749636   0.0000000), wk =   0.0519481
        k(    4) = (   0.0000000   0.2624454   0.0000000), wk =   0.0519481
        k(    5) = (   0.0909091   0.0000000   0.0000000), wk =   0.0519481
        k(    6) = (   0.0909091   0.0874818   0.0000000), wk =   0.1038961
[...]
     atom    8 type  1   force =     0.00001202   -0.00003462   -0.01503747
     atom    9 type  1   force =     0.00004049   -0.00000002   -0.02466221
     atom   10 type  1   force =    -0.00007261   -0.00000727   -0.00914492
     atom   11 type  1   force =     0.00007268    0.00000000    0.00917458
     atom   12 type  1   force =    -0.00004223   -0.00000205    0.02470389
     atom   13 type  1   force =    -0.00000447    0.00000009    0.01505619
     atom   14 type  1   force =     0.00000771    0.00003845   -0.01503687
     atom   15 type  1   force =     0.00004130   -0.00000003   -0.02469154
     atom   16 type  1   force =    -0.00007242    0.00000622   -0.00914429
     atom   17 type  1   force =     0.00007177    0.00000001    0.00916427
     atom   18 type  1   force =    -0.00004352    0.00000159    0.02470179
     atom   19 type  1   force =    -0.00000501    0.00000007    0.01505701
     atom   20 type  1   force =     0.00000771   -0.00003828   -0.01503686
     atom   21 type  1   force =     0.00004526   -0.00000002   -0.02466075
     atom   22 type  1   force =    -0.00007242   -0.00000621   -0.00914429
     atom   23 type  1   force =     0.00007251    0.00000000    0.00917221
     atom   24 type  1   force =    -0.00004352   -0.00000163    0.02470181

     Forces acting on atoms (cartesian axes, Ry/au):

     atom    1 type  1   force =     0.00019222    0.00000000    0.00004680
     atom    2 type  1   force =    -0.00020522    0.00000915   -0.00007296
     atom    3 type  1   force =     0.00004482    0.00000000   -0.00022850
     atom    4 type  1   force =    -0.00001114   -0.00002709    0.00001428
     atom    5 type  1   force =     0.00000245    0.00000000    0.00004614
     atom    6 type  1   force =    -0.00002086    0.00000715    0.00019235
     atom    7 type  1   force =     0.00018201    0.00000000    0.00006146
     atom    8 type  1   force =    -0.00020522   -0.00000915   -0.00007296
     atom    9 type  1   force =     0.00002202    0.00000000   -0.00015556
     atom   10 type  1   force =    -0.00001114    0.00002709    0.00001428
     atom   11 type  1   force =    -0.00000395    0.00000000   -0.00003330
     atom   12 type  1   force =    -0.00002086   -0.00000715    0.00019235
     atom   13 type  1   force =     0.00025496    0.00000000    0.00004771
     atom   14 type  1   force =    -0.00023389    0.00001246   -0.00007462
     atom   15 type  1   force =     0.00003525    0.00000000   -0.00022261
     atom   16 type  1   force =    -0.00001816   -0.00003763    0.00000995
     atom   17 type  1   force =     0.00001644    0.00000000    0.00004102
     atom   18 type  1   force =    -0.00006452    0.00000153    0.00017730
     atom   19 type  1   force =     0.00025627    0.00000000    0.00006683
     atom   20 type  1   force =    -0.00023389   -0.00001246   -0.00007462
     atom   21 type  1   force =     0.00007734    0.00000000   -0.00015107
     atom   22 type  1   force =    -0.00001816    0.00003763    0.00000995
     atom   23 type  1   force =     0.00002772    0.00000000   -0.00001154
     atom   24 type  1   force =    -0.00006452   -0.00000153    0.00017730
     The non-local contrib.  to forces
     atom    1 type  1   force =     0.00041184    0.00000000    0.10251924
     atom    2 type  1   force =    -0.00043498    0.00003463   -0.10253785
     atom    3 type  1   force =     0.00095682    0.00000000   -0.02374687
     atom    4 type  1   force =     0.00013188   -0.00003052    0.00038148
     atom    5 type  1   force =    -0.00012083    0.00000000   -0.00030177
     atom    6 type  1   force =    -0.00092938    0.00001698    0.02368842
     atom    7 type  1   force =     0.00042212    0.00000000    0.10253301
     atom    8 type  1   force =    -0.00043498   -0.00003463   -0.10253785
     atom    9 type  1   force =     0.00090671    0.00000000   -0.02363295
     atom   10 type  1   force =     0.00013188    0.00003052    0.00038148
     atom   11 type  1   force =    -0.00013623    0.00000000   -0.00041108
     atom   12 type  1   force =    -0.00092938   -0.00001698    0.02368842
     atom   13 type  1   force =     0.00046979    0.00000000    0.10252581
     atom   14 type  1   force =    -0.00045697    0.00005472   -0.10254330
     atom   15 type  1   force =     0.00093691    0.00000000   -0.02373513
     atom   16 type  1   force =     0.00012111   -0.00005127    0.00036945
     atom   17 type  1   force =    -0.00011792    0.00000000   -0.00030531
     atom   18 type  1   force =    -0.00095658    0.00001230    0.02366512
     atom   19 type  1   force =     0.00046885    0.00000000    0.10253912
     atom   20 type  1   force =    -0.00045697   -0.00005472   -0.10254330
     atom   21 type  1   force =     0.00096337    0.00000000   -0.02361900
     atom   22 type  1   force =     0.00012111    0.00005127    0.00036945
     atom   23 type  1   force =    -0.00010916    0.00000000   -0.00038574
     atom   24 type  1   force =    -0.00095658   -0.00001230    0.02366512
     The ionic contribution  to forces
     atom    1 type  1   force =    -0.00134507   -0.00000002    8.56387125
     atom    2 type  1   force =     0.00110284    0.00041758   -8.56395115
     atom    3 type  1   force =    -0.00211567    0.00000001   -5.24292489
     atom    4 type  1   force =    -0.00236227   -0.00083239   -2.03259648
     atom    5 type  1   force =     0.00239327   -0.00000002    2.03252524
     atom    6 type  1   force =     0.00255948   -0.00004804    5.24320656
     atom    7 type  1   force =    -0.00139913    0.00000004    8.56389467
     atom    8 type  1   force =     0.00110284   -0.00041759   -8.56395108
     atom    9 type  1   force =    -0.00271139    0.00000002   -5.24353175
     atom   10 type  1   force =    -0.00236226    0.00083236   -2.03259639
     atom   11 type  1   force =     0.00219272    0.00000004    2.03278501
     atom   12 type  1   force =     0.00255948    0.00004802    5.24320675
     atom   13 type  1   force =    -0.00038662   -0.00000002    8.56386126
     atom   14 type  1   force =     0.00070863    0.00056994   -8.56402094
     atom   15 type  1   force =    -0.00242449    0.00000001   -5.24297472
     atom   16 type  1   force =    -0.00250464   -0.00114479   -2.03255295
     atom   17 type  1   force =     0.00237848   -0.00000002    2.03261690
     atom   18 type  1   force =     0.00193054   -0.00015554    5.24327314
     atom   19 type  1   force =    -0.00041495    0.00000004    8.56393156
     atom   20 type  1   force =     0.00070864   -0.00056995   -8.56402086
     atom   21 type  1   force =    -0.00165250    0.00000002   -5.24331709
     atom   22 type  1   force =    -0.00250464    0.00114477   -2.03255287
     atom   23 type  1   force =     0.00261614    0.00000004    2.03254548
     atom   24 type  1   force =     0.00193055    0.00015552    5.24327334
     The local contribution  to forces
     atom    1 type  1   force =     0.00114107   -0.00004249   -8.68139895
     atom    2 type  1   force =    -0.00088655   -0.00052325    8.68145589
     atom    3 type  1   force =     0.00115914   -0.00004367    5.29114202
     atom    4 type  1   force =     0.00228733    0.00078398    2.04137672
     atom    5 type  1   force =    -0.00234391   -0.00004496   -2.04134283
     atom    6 type  1   force =    -0.00161071   -0.00000746   -5.29141006
     atom    7 type  1   force =     0.00117413   -0.00004390   -8.68142362
     atom    8 type  1   force =    -0.00088423    0.00043240    8.68145230
     atom    9 type  1   force =     0.00178617   -0.00004447    5.29167748
     atom   10 type  1   force =     0.00229778   -0.00087274    2.04137429
     atom   11 type  1   force =    -0.00213383   -0.00004170   -2.04158298
     atom   12 type  1   force =    -0.00160665   -0.00007929   -5.29141492
     atom   13 type  1   force =     0.00017658   -0.00004249   -8.68139607
     atom   14 type  1   force =    -0.00049509   -0.00069594    8.68152924
     atom   15 type  1   force =     0.00148143   -0.00004367    5.29118480
     atom   16 type  1   force =     0.00243329    0.00110765    2.04134025
     atom   17 type  1   force =    -0.00231660   -0.00004496   -2.04143605
     atom   18 type  1   force =    -0.00099695    0.00009951   -5.29146632
     atom   19 type  1   force =     0.00020769   -0.00004390   -8.68146155
     atom   20 type  1   force =    -0.00049218    0.00060509    8.68152505
     atom   21 type  1   force =     0.00072114   -0.00004447    5.29145184
     atom   22 type  1   force =     0.00244375   -0.00119641    2.04133782
     atom   23 type  1   force =    -0.00255250   -0.00004170   -2.04134463
     atom   24 type  1   force =    -0.00099288   -0.00018627   -5.29147119
     The core correction contribution to forces
     atom    1 type  1   force =     0.00000000    0.00000000    0.00000000
     atom    2 type  1   force =     0.00000000    0.00000000    0.00000000
     atom    3 type  1   force =     0.00000000    0.00000000    0.00000000
     atom    4 type  1   force =     0.00000000    0.00000000    0.00000000
     atom    5 type  1   force =     0.00000000    0.00000000    0.00000000
     atom    6 type  1   force =     0.00000000    0.00000000    0.00000000
     atom    7 type  1   force =     0.00000000    0.00000000    0.00000000
     atom    8 type  1   force =     0.00000000    0.00000000    0.00000000
     atom    9 type  1   force =     0.00000000    0.00000000    0.00000000
     atom   10 type  1   force =     0.00000000    0.00000000    0.00000000
     atom   11 type  1   force =     0.00000000    0.00000000    0.00000000
     atom   12 type  1   force =     0.00000000    0.00000000    0.00000000
     atom   13 type  1   force =     0.00000000    0.00000000    0.00000000
     atom   14 type  1   force =     0.00000000    0.00000000    0.00000000
     atom   15 type  1   force =     0.00000000    0.00000000    0.00000000
     atom   16 type  1   force =     0.00000000    0.00000000    0.00000000
     atom   17 type  1   force =     0.00000000    0.00000000    0.00000000
     atom   18 type  1   force =     0.00000000    0.00000000    0.00000000
     atom   19 type  1   force =     0.00000000    0.00000000    0.00000000
     atom   20 type  1   force =     0.00000000    0.00000000    0.00000000
     atom   21 type  1   force =     0.00000000    0.00000000    0.00000000
     atom   22 type  1   force =     0.00000000    0.00000000    0.00000000
     atom   23 type  1   force =     0.00000000    0.00000000    0.00000000
     atom   24 type  1   force =     0.00000000    0.00000000    0.00000000
     The Hubbard contrib.    to forces
     atom    1 type  1   force =     0.00000000    0.00000000    0.00000000
     atom    2 type  1   force =     0.00000000    0.00000000    0.00000000
     atom    3 type  1   force =     0.00000000    0.00000000    0.00000000
     atom    4 type  1   force =     0.00000000    0.00000000    0.00000000
     atom    5 type  1   force =     0.00000000    0.00000000    0.00000000
     atom    6 type  1   force =     0.00000000    0.00000000    0.00000000
     atom    7 type  1   force =     0.00000000    0.00000000    0.00000000
     atom    8 type  1   force =     0.00000000    0.00000000    0.00000000
     atom    9 type  1   force =     0.00000000    0.00000000    0.00000000
     atom   10 type  1   force =     0.00000000    0.00000000    0.00000000
     atom   11 type  1   force =     0.00000000    0.00000000    0.00000000
     atom   12 type  1   force =     0.00000000    0.00000000    0.00000000
     atom   13 type  1   force =     0.00000000    0.00000000    0.00000000
     atom   14 type  1   force =     0.00000000    0.00000000    0.00000000
     atom   15 type  1   force =     0.00000000    0.00000000    0.00000000
     atom   16 type  1   force =     0.00000000    0.00000000    0.00000000
     atom   17 type  1   force =     0.00000000    0.00000000    0.00000000
     atom   18 type  1   force =     0.00000000    0.00000000    0.00000000
     atom   19 type  1   force =     0.00000000    0.00000000    0.00000000
     atom   20 type  1   force =     0.00000000    0.00000000    0.00000000
     atom   21 type  1   force =     0.00000000    0.00000000    0.00000000
     atom   22 type  1   force =     0.00000000    0.00000000    0.00000000
     atom   23 type  1   force =     0.00000000    0.00000000    0.00000000
     atom   24 type  1   force =     0.00000000    0.00000000    0.00000000
     The SCF correction term to forces
     atom    1 type  1   force =    -0.00000027    0.00000000    0.00000053
     atom    2 type  1   force =     0.00000027    0.00000006   -0.00000065
     atom    3 type  1   force =     0.00000004    0.00000000   -0.00000605
     atom    4 type  1   force =    -0.00000070    0.00000018   -0.00000138
     atom    5 type  1   force =     0.00000069   -0.00000000    0.00000122
     atom    6 type  1   force =    -0.00000005    0.00000026    0.00000586
     atom    7 type  1   force =    -0.00000033   -0.00000000    0.00000092
     atom    8 type  1   force =     0.00000027   -0.00000006   -0.00000065
     atom    9 type  1   force =     0.00000001   -0.00000000   -0.00000616
     atom   10 type  1   force =    -0.00000070   -0.00000018   -0.00000138
     atom   11 type  1   force =     0.00000070    0.00000000    0.00000114
     atom   12 type  1   force =    -0.00000005   -0.00000026    0.00000586
     atom   13 type  1   force =    -0.00000032   -0.00000000    0.00000049
     atom   14 type  1   force =     0.00000036   -0.00000007   -0.00000074
     atom   15 type  1   force =     0.00000008    0.00000000   -0.00000605
     atom   16 type  1   force =    -0.00000072    0.00000018   -0.00000136
     atom   17 type  1   force =     0.00000069   -0.00000000    0.00000117
     atom   18 type  1   force =    -0.00000006    0.00000026    0.00000586
     atom   19 type  1   force =    -0.00000031    0.00000000    0.00000066
     atom   20 type  1   force =     0.00000036    0.00000007   -0.00000074
     atom   21 type  1   force =     0.00000006   -0.00000000   -0.00000610
     atom   22 type  1   force =    -0.00000072   -0.00000018   -0.00000136
     atom   23 type  1   force =     0.00000071   -0.00000000    0.00000111
     atom   24 type  1   force =    -0.00000006   -0.00000026    0.00000586

     Total force =     0.000864     Total SCF correction =     0.000018
     Energy error            =      5.1E-06 Ry
     Gradient error          =      2.6E-04 Ry/Bohr

     bfgs converged in  35 scf cycles and  34 bfgs steps
     (criteria: energy <  1.0E-05 Ry, force <  3.9E-04 Ry/Bohr)

     End of BFGS Geometry Optimization

     Final energy             =    -360.8272837303 Ry

     File ./Li/Lithium.bfgs deleted, as requested
Begin final coordinates

ATOMIC_POSITIONS (angstrom)
Li               3.1161907491        4.8580445300       27.1129496197
Li               0.8505205531        2.4287392597       19.9336913199
Li               2.0012751254        4.8580445600       21.5424594817
Li               3.1167166759        2.4292951685       22.7121610203
Li               0.8499557274        4.8580445800       24.3333343895
Li               1.9650326126        2.4290645610       25.5042938217
Li               3.1162667235        9.7160883600       27.1128252191
Li               0.8505205131        7.2873499003       19.9336913799
Li               2.0015354546        9.7160883800       21.5413030919
Li               3.1167164959        7.2867939715       22.7121610603
Li               0.8500128580        9.7160883300       24.3341870484
Li               1.9650325426        7.2870245490       25.5042939016
Li               6.0905571834        4.8580445300       27.1128843597
Li               3.8257197282        2.4286833731       19.9336794421
Li               4.9763225382        4.8580445600       21.5423761488
Li               6.0917137296        2.4293435448       22.7122159876
Li               3.8247810457        4.8580445800       24.3334266772
Li               4.9403682008        2.4291130082       25.5044551030
Li               6.0905287863        9.7160883600       27.1127852115
Li               3.8257196782        7.2874057869       19.9336795121
Li               4.9759065057        9.7160883800       21.5413131122
Li               6.0917135496        7.2867455952       22.7122160276
Li               3.8246367040        9.7160883300       24.3339797732
Li               4.9403681308        7.2869761018       25.5044551830
End final coordinates

     Writing all to output data dir ./Li/Lithium.save/ :
     XML data file

     General routines

     Parallel routines

     PAW routines

     Environ routines

   This run was terminated on:  23:19: 2   1Jan2025

   JOB DONE.