     Program PWSCF v.7.4 starts on  5Jan2025 at 21:38: 3

     Reading input from espresso.pwi
Warning: card &CELL ignored
Warning: card    PRESS_CONV_THR   = 0.1 ignored
Warning: card    CELL_DOFREE      = 'ALL' ignored
Warning: card / ignored
Warning: card &FCP ignored
Warning: card / ignored
Warning: card &RISM ignored
Warning: card / ignored

     Current dimensions of program PWSCF are:
     Max number of different atomic species (ntypx) = 10
     Max number of k-points (npk) =  40000
     Max angular momentum in pseudopotentials (lmaxx) =  4

     IMPORTANT: XC functional enforced from input :
     Exchange-correlation= PBE
                           (   1   4   3   4   0   0   0)
     Any further DFT definition will be discarded
     Please, verify this is what you really want

     Reading input from environ.in:
     * using ionic solvent mode
     * setting boundary derivatives method to SSCS default
     * setting electrolyte-boundary derivatives method to SSCS default

Environ Warning (1001): card EOF ignored

     K-points division:     npool     =       2
     R & G space division:  proc/nbgrp/npool/nimage =     256
     Subspace diagonalization in iterative solution of the eigenvalue problem:
     a serial algorithm will be used

     Using Slab Decomposition

     bravais-lattice index     =            8
     lattice parameter (alat)  =      18.3607  a.u.
     unit-cell volume          =   20684.8735 (a.u.)^3
     number of atoms/cell      =           44
     number of atomic types    =            1
     number of electrons       =       132.00
     number of Kohn-Sham states=           99
     kinetic-energy cutoff     =      80.0000  Ry
     charge density cutoff     =     800.0000  Ry
     scf convergence threshold =      1.0E-14
     mixing beta               =       0.2000
     number of iterations used =            8  local-TF  mixing
     Exchange-correlation= PBE
                           (   1   4   3   4   0   0   0)

                                  Environ Setup Summary

          O. Andreussi, I. Dabo and N. Marzari, J. Chem. Phys. 136, 064102 (2012)
          F. Nattino, M. Truscott, N. Marzari, and O. Andreussi, J. Chem. Phys. 150, 041722 (2019)

     in publications or presentations arising from this work.

     Parameters

     compensation onset threshold      =               0.1000E+00
     static permittivity               =                    89.90
     surface tension in input (dyn/cm) =                    37.30
     surface tension in internal units =               0.4792E-04

     Solvent Boundary

     solvent mode                      =                    ionic
     derivatives method                =                   lowmem
     electrolyte derivatives method    =                   lowmem
     numerical core for derivatives    =                      fft
     switching function adopted        =                     SCCS
     density limit for vacuum region   =               0.5000E-02
     density limit for bulk solvent    =               0.1000E-03
     soft-sphere radius mode           =                    bondi
     soft-sphere softness              =                     0.50
     alpha                             =                     1.32

     Electrostatic Setup

     electrostatic problem to solve    =                    modpb
     numerical solver adopted          =                   newton
     type of auxiliary density adopted =                     none
     numerical core for poisson        =                      fft
     adopting a nested solver scheme
     inner solver                      =                       cg
     inner core                        =                      fft
     type of pbc corrections           =                parabolic
     numerical core for corrections    =                      1da

     >>>>> Grand-Canonical SCF is activated <<<<<
     Initial Total Charge  =     0.000000 e
     Target Fermi Energy   =    -1.404000 eV
     Thr. of Fermi Energy  =     0.001000 eV
     Wave-shift of Kerker  =     0.400000 bohr^-1
     Wave-shift of Hartree =     1.500000 bohr^-1
     Mixing Rate of Fermi  =     0.050000

     celldm(1)=  18.360747  celldm(2)=   0.586302  celldm(3)=   5.699811
     celldm(4)=   0.000000  celldm(5)=   0.000000  celldm(6)=   0.000000

     crystal axes: (cart. coord. in units of alat)
               a(1) = (   1.000000   0.000000   0.000000 )
               a(2) = (   0.000000   0.586302   0.000000 )
               a(3) = (   0.000000   0.000000   5.699811 )

     reciprocal axes: (cart. coord. in units 2 pi/alat)
               b(1) = (  1.000000  0.000000  0.000000 )
               b(2) = (  0.000000  1.705606  0.000000 )
               b(3) = (  0.000000  0.000000  0.175444 )

     PseudoPot. # 1 for Li read from file:
     /work/e89/e89/ba3g18/Repos/Pseudopotentials/Pslibrary/Li.pbe-sl-kjpaw_psl.1.0.0.UPF
     MD5 check sum: 3f4d2cafebb47c6c3aa8ed472e6f074d
     Pseudo is Projector augmented-wave, Zval =  3.0
     Generated using 'atomic' code by A. Dal Corso  v.7.4
     Shape of augmentation charge: PSQ
     Using radial grid of 1017 points,  4 beta functions with:
                l(1) =   0
                l(2) =   0
                l(3) =   1
                l(4) =   1
     Q(r) pseudized with 0 coefficients

     atomic species   valence    mass     pseudopotential
     Li                3.00     6.94000     Li( 1.00)

      2 Sym. Ops. (no inversion) found

                                    s                        frac. trans.

      isym =  1     identity

 cryst.   s( 1) = (     1          0          0      )
                  (     0          1          0      )
                  (     0          0          1      )

 cart.    s( 1) = (  1.0000000  0.0000000  0.0000000 )
                  (  0.0000000  1.0000000  0.0000000 )
                  (  0.0000000  0.0000000  1.0000000 )

      isym =  2     inv. 180 deg rotation - cart. axis [1,0,0]

 cryst.   s( 2) = (    -1          0          0      )
                  (     0          1          0      )
                  (     0          0          1      )

 cart.    s( 2) = ( -1.0000000  0.0000000  0.0000000 )
                  (  0.0000000  1.0000000  0.0000000 )
                  (  0.0000000  0.0000000  1.0000000 )

     point group C_s (m)
     there are  2 classes
     the character table:

       E     s
A'     1.00  1.00
A''    1.00 -1.00

     the symmetry operations in each class and the name of the first element:

     E        1
          identity
     s        2
          inv. 180 deg rotation - cart. axis [1,0,0]

   Cartesian axes

     site n.     atom                  positions (alat units)
         1        Li     tau(   1) = (   0.5000000   0.5927854   3.6201990  )
         2        Li     tau(   2) = (   0.2499878   0.4199293   2.0795495  )
         3        Li     tau(   3) = (   0.2500012   0.1105679   2.2211291  )
         4        Li     tau(   4) = (   0.5000000   0.2354230   2.1063350  )
         5        Li     tau(   5) = (   0.0000000   0.5114276   2.2648713  )
         6        Li     tau(   6) = (   0.5000000   0.1999203   2.4158162  )
         7        Li     tau(   7) = (   0.2499999   0.3191744   2.6780313  )
         8        Li     tau(   8) = (   0.2500014   0.5914425   2.8216541  )
         9        Li     tau(   9) = (   0.2500034   0.3719083   2.3779931  )
        10        Li     tau(  10) = (   0.2500050   0.0535818   2.5178971  )
        11        Li     tau(  11) = (   0.0000000   0.4663890   2.5767119  )
        12        Li     tau(  12) = (   0.5000000   0.1529774   2.7196997  )
        13        Li     tau(  13) = (   0.5000000   0.4212386   2.8781864  )
        14        Li     tau(  14) = (   0.5000000   0.1071783   3.0217898  )
        15        Li     tau(  15) = (   0.2500114   0.5462659   3.1231442  )
        16        Li     tau(  16) = (   0.2499829   0.2264733   3.2840012  )
        17        Li     tau(  17) = (   0.2500035   0.2733885   2.9801112  )
        18        Li     tau(  18) = (   0.0000000   0.3727576   3.1819498  )
        19        Li     tau(  19) = (   0.5000000   0.0544595   3.3217986  )
        20        Li     tau(  20) = (   0.5000000   0.3158632   3.4786253  )
        21        Li     tau(  21) = (   0.2500055   0.5012683   3.4349630  )
        22        Li     tau(  22) = (   0.2500313   0.1910209   3.5934386  )
        23        Li     tau(  23) = (   1.0000000   0.5928665   3.6202101  )
        24        Li     tau(  24) = (   0.7500121   0.4199293   2.0795495  )
        25        Li     tau(  25) = (   0.7499988   0.1105679   2.2211291  )
        26        Li     tau(  26) = (   1.0000000   0.2354139   2.1063224  )
        27        Li     tau(  27) = (   0.5000000   0.5114426   2.2648414  )
        28        Li     tau(  28) = (   1.0000000   0.1999520   2.4158057  )
        29        Li     tau(  29) = (   0.7500001   0.3191744   2.6780313  )
        30        Li     tau(  30) = (   0.7499986   0.5914425   2.8216541  )
        31        Li     tau(  31) = (   0.7499966   0.3719083   2.3779931  )
        32        Li     tau(  32) = (   0.7499950   0.0535818   2.5178971  )
        33        Li     tau(  33) = (   0.5000000   0.4664207   2.5766709  )
        34        Li     tau(  34) = (   1.0000000   0.1530214   2.7197053  )
        35        Li     tau(  35) = (   1.0000000   0.4212125   2.8782329  )
        36        Li     tau(  36) = (   1.0000000   0.1072464   3.0217963  )
        37        Li     tau(  37) = (   0.7499886   0.5462659   3.1231442  )
        38        Li     tau(  38) = (   0.7500170   0.2264733   3.2840012  )
        39        Li     tau(  39) = (   0.7499965   0.2733885   2.9801112  )
        40        Li     tau(  40) = (   0.5000000   0.3728263   3.1818753  )
        41        Li     tau(  41) = (   1.0000000   0.0545791   3.3218093  )
        42        Li     tau(  42) = (   1.0000000   0.3158048   3.4786903  )
        43        Li     tau(  43) = (   0.7499945   0.5012683   3.4349630  )
        44        Li     tau(  44) = (   0.7499687   0.1910209   3.5934386  )

   Crystallographic axes

     site n.     atom                  positions (cryst. coord.)
         1        Li     tau(   1) = (  0.5000000  1.0110581  0.6351437  )
         2        Li     tau(   2) = (  0.2499878  0.7162337  0.3648454  )
         3        Li     tau(   3) = (  0.2500012  0.1885852  0.3896847  )
         4        Li     tau(   4) = (  0.5000000  0.4015388  0.3695447  )
         5        Li     tau(   5) = (  0.0000000  0.8722939  0.3973590  )
         6        Li     tau(   6) = (  0.5000000  0.3409853  0.4238415  )
         7        Li     tau(   7) = (  0.2499999  0.5443857  0.4698456  )
         8        Li     tau(   8) = (  0.2500014  1.0087676  0.4950434  )
         9        Li     tau(   9) = (  0.2500034  0.6343288  0.4172056  )
        10        Li     tau(  10) = (  0.2500050  0.0913893  0.4417510  )
        11        Li     tau(  11) = (  0.0000000  0.7954757  0.4520697  )
        12        Li     tau(  12) = (  0.5000000  0.2609191  0.4771561  )
        13        Li     tau(  13) = (  0.5000000  0.7184669  0.5049617  )
[...]
     atom    7 type  1   force =     0.00007910    0.01028545   -3.68681381
     atom    8 type  1   force =    -0.00031488   -0.00969398   -0.61965019
     atom    9 type  1   force =     0.00001540    0.03053946  -10.07054635
     atom   10 type  1   force =    -0.00029959   -0.01911337   -7.10196131
     atom   11 type  1   force =    -0.00000001    0.03180604   -5.87443534
     atom   12 type  1   force =    -0.00000001   -0.01527068   -2.79206678
     atom   13 type  1   force =    -0.00000001    0.00949364    0.61908639
     atom   14 type  1   force =    -0.00000001   -0.00986350    3.68642485
     atom   15 type  1   force =    -0.00053143   -0.03129418    5.87516317
     atom   16 type  1   force =     0.00051070    0.02671348    9.28015251
     atom   17 type  1   force =     0.00012555    0.01537149    2.79147031
     atom   18 type  1   force =     0.00000000    0.02022931    7.10259809
     atom   19 type  1   force =    -0.00000001   -0.03004723   10.07025484
     atom   20 type  1   force =    -0.00000001    0.09731451   13.50200718
     atom   21 type  1   force =    -0.00049090   -0.07717741   12.57929281
     atom   22 type  1   force =     0.00011595    0.15239522   15.50364942
     atom   23 type  1   force =     0.00000003   -0.16475687   15.86500241
     atom   24 type  1   force =    -0.00002227    0.16429982  -15.86494484
     atom   25 type  1   force =     0.00008785   -0.09760988  -13.50265636
     atom   26 type  1   force =     0.00000002   -0.15256293  -15.50341599
     atom   27 type  1   force =    -0.00000000    0.07716335  -12.57907456
     atom   28 type  1   force =     0.00000002   -0.02706108   -9.28032249
     atom   29 type  1   force =    -0.00007911    0.01028547   -3.68681382
     atom   30 type  1   force =     0.00031485   -0.00969399   -0.61965020
     atom   31 type  1   force =    -0.00001539    0.03053948  -10.07054635
     atom   32 type  1   force =     0.00029959   -0.01911339   -7.10196132
     atom   33 type  1   force =    -0.00000000    0.03118729   -5.87532087
     atom   34 type  1   force =     0.00000003   -0.01593709   -2.79209708
     atom   35 type  1   force =     0.00000003    0.01026982    0.62032063
     atom   36 type  1   force =     0.00000004   -0.01096920    3.68635934
     atom   37 type  1   force =     0.00053142   -0.03129420    5.87516318
     atom   38 type  1   force =    -0.00051071    0.02671350    9.28015250
     atom   39 type  1   force =    -0.00012557    0.01537149    2.79147033
     atom   40 type  1   force =    -0.00000001    0.01855733    7.10111754
     atom   41 type  1   force =     0.00000003   -0.03179520   10.07025843
     atom   42 type  1   force =     0.00000003    0.09865197   13.50367462
     atom   43 type  1   force =     0.00049087   -0.07717741   12.57929280
     atom   44 type  1   force =    -0.00011597    0.15239522   15.50364944
     The local contribution  to forces
     atom    1 type  1   force =     0.00000136    0.16238688  -15.68778757
     atom    2 type  1   force =    -0.00002232   -0.16251037   15.68733401
     atom    3 type  1   force =     0.00008989    0.09175308   13.26889448
     atom    4 type  1   force =     0.00000136    0.14112240   15.30040984
     atom    5 type  1   force =     0.00000000   -0.06728176   12.34921220
     atom    6 type  1   force =     0.00000136    0.02592541    9.10971427
     atom    7 type  1   force =    -0.00007844   -0.01108816    3.61549640
     atom    8 type  1   force =     0.00032093    0.01014609    0.60701398
     atom    9 type  1   force =    -0.00001480   -0.03012536    9.88627881
     atom   10 type  1   force =     0.00030363    0.02143855    6.97581083
     atom   11 type  1   force =    -0.00000000   -0.03226535    5.76880874
     atom   12 type  1   force =     0.00000136    0.01766833    2.74552758
     atom   13 type  1   force =     0.00000136   -0.00993947   -0.60674925
     atom   14 type  1   force =     0.00000136    0.01066110   -3.61541033
     atom   15 type  1   force =     0.00054273    0.03174517   -5.76984579
     atom   16 type  1   force =    -0.00051024   -0.02600875   -9.10997892
     atom   17 type  1   force =    -0.00012876   -0.01776459   -2.74522327
     atom   18 type  1   force =     0.00000000   -0.02256413   -6.97673638
     atom   19 type  1   force =     0.00000136    0.02962927   -9.88628028
     atom   20 type  1   force =     0.00000136   -0.09145054  -13.26854708
     atom   21 type  1   force =     0.00049659    0.06704541  -12.35049699
     atom   22 type  1   force =    -0.00012283   -0.14109427  -15.30102851
     atom   23 type  1   force =     0.00000273    0.16297663  -15.68766643
     atom   24 type  1   force =     0.00002505   -0.16251037   15.68733401
     atom   25 type  1   force =    -0.00008716    0.09175308   13.26889448
     atom   26 type  1   force =     0.00000272    0.14125624   15.30050071
     atom   27 type  1   force =     0.00000136   -0.06703075   12.34997930
     atom   28 type  1   force =     0.00000272    0.02636242    9.10985783
     atom   29 type  1   force =     0.00008115   -0.01108816    3.61549640
     atom   30 type  1   force =    -0.00031821    0.01014609    0.60701398
     atom   31 type  1   force =     0.00001752   -0.03012536    9.88627881
     atom   32 type  1   force =    -0.00030090    0.02143855    6.97581083
     atom   33 type  1   force =     0.00000136   -0.03163796    5.76969095
     atom   34 type  1   force =     0.00000272    0.01834469    2.74556595
     atom   35 type  1   force =     0.00000272   -0.01073004   -0.60798208
     atom   36 type  1   force =     0.00000272    0.01178637   -3.61533421
     atom   37 type  1   force =    -0.00054001    0.03174517   -5.76984579
     atom   38 type  1   force =     0.00051295   -0.02600875   -9.10997892
     atom   39 type  1   force =     0.00013149   -0.01776459   -2.74522327
     atom   40 type  1   force =     0.00000136   -0.02087004   -6.97528370
     atom   41 type  1   force =     0.00000272    0.03138880   -9.88629574
     atom   42 type  1   force =     0.00000272   -0.09280662  -13.27020288
     atom   43 type  1   force =    -0.00049388    0.06704541  -12.35049699
     atom   44 type  1   force =     0.00012555   -0.14109427  -15.30102851
     The core correction contribution to forces
     atom    1 type  1   force =     0.00000000    0.00000000    0.00000000
     atom    2 type  1   force =     0.00000000    0.00000000    0.00000000
     atom    3 type  1   force =     0.00000000    0.00000000    0.00000000
     atom    4 type  1   force =     0.00000000    0.00000000    0.00000000
     atom    5 type  1   force =     0.00000000    0.00000000    0.00000000
     atom    6 type  1   force =     0.00000000    0.00000000    0.00000000
     atom    7 type  1   force =     0.00000000    0.00000000    0.00000000
     atom    8 type  1   force =     0.00000000    0.00000000    0.00000000
     atom    9 type  1   force =     0.00000000    0.00000000    0.00000000
     atom   10 type  1   force =     0.00000000    0.00000000    0.00000000
     atom   11 type  1   force =     0.00000000    0.00000000    0.00000000
     atom   12 type  1   force =     0.00000000    0.00000000    0.00000000
     atom   13 type  1   force =     0.00000000    0.00000000    0.00000000
     atom   14 type  1   force =     0.00000000    0.00000000    0.00000000
     atom   15 type  1   force =     0.00000000    0.00000000    0.00000000
     atom   16 type  1   force =     0.00000000    0.00000000    0.00000000
     atom   17 type  1   force =     0.00000000    0.00000000    0.00000000
     atom   18 type  1   force =     0.00000000    0.00000000    0.00000000
     atom   19 type  1   force =     0.00000000    0.00000000    0.00000000
     atom   20 type  1   force =     0.00000000    0.00000000    0.00000000
     atom   21 type  1   force =     0.00000000    0.00000000    0.00000000
     atom   22 type  1   force =     0.00000000    0.00000000    0.00000000
     atom   23 type  1   force =     0.00000000    0.00000000    0.00000000
     atom   24 type  1   force =     0.00000000    0.00000000    0.00000000
     atom   25 type  1   force =     0.00000000    0.00000000    0.00000000
     atom   26 type  1   force =     0.00000000    0.00000000    0.00000000
     atom   27 type  1   force =     0.00000000    0.00000000    0.00000000
     atom   28 type  1   force =     0.00000000    0.00000000    0.00000000
     atom   29 type  1   force =     0.00000000    0.00000000    0.00000000
     atom   30 type  1   force =     0.00000000    0.00000000    0.00000000
     atom   31 type  1   force =     0.00000000    0.00000000    0.00000000
     atom   32 type  1   force =     0.00000000    0.00000000    0.00000000
     atom   33 type  1   force =     0.00000000    0.00000000    0.00000000
     atom   34 type  1   force =     0.00000000    0.00000000    0.00000000
     atom   35 type  1   force =     0.00000000    0.00000000    0.00000000
     atom   36 type  1   force =     0.00000000    0.00000000    0.00000000
     atom   37 type  1   force =     0.00000000    0.00000000    0.00000000
     atom   38 type  1   force =     0.00000000    0.00000000    0.00000000
     atom   39 type  1   force =     0.00000000    0.00000000    0.00000000
     atom   40 type  1   force =     0.00000000    0.00000000    0.00000000
     atom   41 type  1   force =     0.00000000    0.00000000    0.00000000
     atom   42 type  1   force =     0.00000000    0.00000000    0.00000000
     atom   43 type  1   force =     0.00000000    0.00000000    0.00000000
     atom   44 type  1   force =     0.00000000    0.00000000    0.00000000
     The Hubbard contrib.    to forces
     atom    1 type  1   force =     0.00000000    0.00000000    0.00000000
     atom    2 type  1   force =     0.00000000    0.00000000    0.00000000
     atom    3 type  1   force =     0.00000000    0.00000000    0.00000000
     atom    4 type  1   force =     0.00000000    0.00000000    0.00000000
     atom    5 type  1   force =     0.00000000    0.00000000    0.00000000
     atom    6 type  1   force =     0.00000000    0.00000000    0.00000000
     atom    7 type  1   force =     0.00000000    0.00000000    0.00000000
     atom    8 type  1   force =     0.00000000    0.00000000    0.00000000
     atom    9 type  1   force =     0.00000000    0.00000000    0.00000000
     atom   10 type  1   force =     0.00000000    0.00000000    0.00000000
     atom   11 type  1   force =     0.00000000    0.00000000    0.00000000
     atom   12 type  1   force =     0.00000000    0.00000000    0.00000000
     atom   13 type  1   force =     0.00000000    0.00000000    0.00000000
     atom   14 type  1   force =     0.00000000    0.00000000    0.00000000
     atom   15 type  1   force =     0.00000000    0.00000000    0.00000000
     atom   16 type  1   force =     0.00000000    0.00000000    0.00000000
     atom   17 type  1   force =     0.00000000    0.00000000    0.00000000
     atom   18 type  1   force =     0.00000000    0.00000000    0.00000000
     atom   19 type  1   force =     0.00000000    0.00000000    0.00000000
     atom   20 type  1   force =     0.00000000    0.00000000    0.00000000
     atom   21 type  1   force =     0.00000000    0.00000000    0.00000000
     atom   22 type  1   force =     0.00000000    0.00000000    0.00000000
     atom   23 type  1   force =     0.00000000    0.00000000    0.00000000
     atom   24 type  1   force =     0.00000000    0.00000000    0.00000000
     atom   25 type  1   force =     0.00000000    0.00000000    0.00000000
     atom   26 type  1   force =     0.00000000    0.00000000    0.00000000
     atom   27 type  1   force =     0.00000000    0.00000000    0.00000000
     atom   28 type  1   force =     0.00000000    0.00000000    0.00000000
     atom   29 type  1   force =     0.00000000    0.00000000    0.00000000
     atom   30 type  1   force =     0.00000000    0.00000000    0.00000000
     atom   31 type  1   force =     0.00000000    0.00000000    0.00000000
     atom   32 type  1   force =     0.00000000    0.00000000    0.00000000
     atom   33 type  1   force =     0.00000000    0.00000000    0.00000000
     atom   34 type  1   force =     0.00000000    0.00000000    0.00000000
     atom   35 type  1   force =     0.00000000    0.00000000    0.00000000
     atom   36 type  1   force =     0.00000000    0.00000000    0.00000000
     atom   37 type  1   force =     0.00000000    0.00000000    0.00000000
     atom   38 type  1   force =     0.00000000    0.00000000    0.00000000
     atom   39 type  1   force =     0.00000000    0.00000000    0.00000000
     atom   40 type  1   force =     0.00000000    0.00000000    0.00000000
     atom   41 type  1   force =     0.00000000    0.00000000    0.00000000
     atom   42 type  1   force =     0.00000000    0.00000000    0.00000000
     atom   43 type  1   force =     0.00000000    0.00000000    0.00000000
     atom   44 type  1   force =     0.00000000    0.00000000    0.00000000
     The SCF correction term to forces
     atom    1 type  1   force =     0.00000000   -0.00000000    0.00000002
     atom    2 type  1   force =    -0.00000000    0.00000001   -0.00000003
     atom    3 type  1   force =    -0.00000000   -0.00000000   -0.00000002
     atom    4 type  1   force =    -0.00000000    0.00000000   -0.00000003
     atom    5 type  1   force =    -0.00000000   -0.00000001   -0.00000001
     atom    6 type  1   force =     0.00000000    0.00000001    0.00000001
     atom    7 type  1   force =    -0.00000000    0.00000001    0.00000002
     atom    8 type  1   force =    -0.00000000   -0.00000001   -0.00000000
     atom    9 type  1   force =    -0.00000000    0.00000001    0.00000001
     atom   10 type  1   force =    -0.00000000   -0.00000001    0.00000003
     atom   11 type  1   force =    -0.00000000   -0.00000001    0.00000002
     atom   12 type  1   force =     0.00000000   -0.00000000    0.00000001
     atom   13 type  1   force =     0.00000000    0.00000001    0.00000000
     atom   14 type  1   force =     0.00000000   -0.00000001   -0.00000000
     atom   15 type  1   force =     0.00000000    0.00000001    0.00000000
     atom   16 type  1   force =    -0.00000000   -0.00000001    0.00000002
     atom   17 type  1   force =    -0.00000000   -0.00000000   -0.00000000
     atom   18 type  1   force =    -0.00000000    0.00000001    0.00000001
     atom   19 type  1   force =     0.00000000   -0.00000000    0.00000003
     atom   20 type  1   force =     0.00000000    0.00000000    0.00000003
     atom   21 type  1   force =    -0.00000000    0.00000001    0.00000003
     atom   22 type  1   force =    -0.00000000   -0.00000000    0.00000003
     atom   23 type  1   force =     0.00000000   -0.00000000    0.00000002
     atom   24 type  1   force =     0.00000000    0.00000001   -0.00000003
     atom   25 type  1   force =     0.00000000   -0.00000000   -0.00000002
     atom   26 type  1   force =     0.00000000    0.00000000   -0.00000003
     atom   27 type  1   force =    -0.00000000   -0.00000001   -0.00000001
     atom   28 type  1   force =    -0.00000000    0.00000001    0.00000001
     atom   29 type  1   force =     0.00000000    0.00000001    0.00000002
     atom   30 type  1   force =     0.00000000   -0.00000001   -0.00000000
     atom   31 type  1   force =     0.00000000    0.00000001    0.00000001
     atom   32 type  1   force =     0.00000000   -0.00000001    0.00000003
     atom   33 type  1   force =    -0.00000000   -0.00000000    0.00000002
     atom   34 type  1   force =    -0.00000000   -0.00000000    0.00000001
     atom   35 type  1   force =     0.00000000    0.00000001   -0.00000000
     atom   36 type  1   force =     0.00000000   -0.00000001   -0.00000000
     atom   37 type  1   force =    -0.00000000    0.00000001    0.00000000
     atom   38 type  1   force =     0.00000000   -0.00000001    0.00000002
     atom   39 type  1   force =     0.00000000   -0.00000000   -0.00000000
     atom   40 type  1   force =     0.00000000    0.00000001    0.00000001
     atom   41 type  1   force =    -0.00000000   -0.00000000    0.00000002
     atom   42 type  1   force =     0.00000000    0.00000000    0.00000003
     atom   43 type  1   force =     0.00000000    0.00000001    0.00000003
     atom   44 type  1   force =     0.00000000   -0.00000000    0.00000003

     Total force =     0.002740     Total SCF correction =     0.000000

     Writing all to output data dir ./Li/Lithium.save/ :
     XML data file

     General routines

     Parallel routines

     PAW routines

     Environ routines

   This run was terminated on:  22:23:21   5Jan2025

   JOB DONE.