     Program PWSCF v.7.4 starts on 28Dec2024 at 11:26:48

     Reading input from espresso.pwi
Warning: card &CELL ignored
Warning: card    PRESS_CONV_THR   = 0.1 ignored
Warning: card    CELL_DOFREE      = 'ALL' ignored
Warning: card / ignored
Warning: card &FCP ignored
Warning: card / ignored
Warning: card &RISM ignored
Warning: card / ignored

     Current dimensions of program PWSCF are:
     Max number of different atomic species (ntypx) = 10
     Max number of k-points (npk) =  40000
     Max angular momentum in pseudopotentials (lmaxx) =  4

     IMPORTANT: XC functional enforced from input :
     Exchange-correlation= PBE
                           (   1   4   3   4   0   0   0)
     Any further DFT definition will be discarded
     Please, verify this is what you really want

     Reading input from environ.in:
     * using ionic solvent mode
     * setting boundary derivatives method to SSCS default
     * setting electrolyte-boundary derivatives method to SSCS default

Environ Warning (1001): card EOF ignored

     R & G space division:  proc/nbgrp/npool/nimage =     192
     Subspace diagonalization in iterative solution of the eigenvalue problem:
     a serial algorithm will be used

     Using Slab Decomposition

     bravais-lattice index     =            8
     lattice parameter (alat)  =      18.3607  a.u.
     unit-cell volume          =   20684.8751 (a.u.)^3
     number of atoms/cell      =           44
     number of atomic types    =            1
     number of electrons       =       132.00
     number of Kohn-Sham states=           99
     kinetic-energy cutoff     =      80.0000  Ry
     charge density cutoff     =     800.0000  Ry
     scf convergence threshold =      1.0E-14
     mixing beta               =       0.2000
     number of iterations used =            8  local-TF  mixing
     Exchange-correlation= PBE
                           (   1   4   3   4   0   0   0)

                                  Environ Setup Summary

          O. Andreussi, I. Dabo and N. Marzari, J. Chem. Phys. 136, 064102 (2012)
          F. Nattino, M. Truscott, N. Marzari, and O. Andreussi, J. Chem. Phys. 150, 041722 (2019)

     in publications or presentations arising from this work.

     Parameters

     compensation onset threshold      =               0.1000E+00
     static permittivity               =                    89.90
     surface tension in input (dyn/cm) =                    37.30
     surface tension in internal units =               0.4792E-04

     Solvent Boundary

     solvent mode                      =                    ionic
     derivatives method                =                   lowmem
     electrolyte derivatives method    =                   lowmem
     numerical core for derivatives    =                      fft
     switching function adopted        =                     SCCS
     density limit for vacuum region   =               0.5000E-02
     density limit for bulk solvent    =               0.1000E-03
     soft-sphere radius mode           =                    bondi
     soft-sphere softness              =                     0.50
     alpha                             =                     1.32

     Electrostatic Setup

     electrostatic problem to solve    =                    modpb
     numerical solver adopted          =                   newton
     type of auxiliary density adopted =                     none
     numerical core for poisson        =                      fft
     adopting a nested solver scheme
     inner solver                      =                       cg
     inner core                        =                      fft
     type of pbc corrections           =                parabolic
     numerical core for corrections    =                      1da

     celldm(1)=  18.360747  celldm(2)=   0.586302  celldm(3)=   5.699811
     celldm(4)=   0.000000  celldm(5)=   0.000000  celldm(6)=   0.000000

     crystal axes: (cart. coord. in units of alat)
               a(1) = (   1.000000   0.000000   0.000000 )
               a(2) = (   0.000000   0.586302   0.000000 )
               a(3) = (   0.000000   0.000000   5.699811 )

     reciprocal axes: (cart. coord. in units 2 pi/alat)
               b(1) = (  1.000000  0.000000  0.000000 )
               b(2) = (  0.000000  1.705606  0.000000 )
               b(3) = (  0.000000  0.000000  0.175444 )

     PseudoPot. # 1 for Li read from file:
     /home/ba3g18/Repos/Pseudopotentials/pslibrary.1.0.0/pbe/PSEUDOPOTENTIALS/Li.pbe-sl-kjpaw_psl.1.0.0.UPF
     MD5 check sum: 3f4d2cafebb47c6c3aa8ed472e6f074d
     Pseudo is Projector augmented-wave, Zval =  3.0
     Generated using 'atomic' code by A. Dal Corso  v.7.4
     Shape of augmentation charge: PSQ
     Using radial grid of 1017 points,  4 beta functions with:
                l(1) =   0
                l(2) =   0
                l(3) =   1
                l(4) =   1
     Q(r) pseudized with 0 coefficients

     atomic species   valence    mass     pseudopotential
     Li                3.00     6.94000     Li( 1.00)

      2 Sym. Ops. (no inversion) found

                                    s                        frac. trans.

      isym =  1     identity

 cryst.   s( 1) = (     1          0          0      )
                  (     0          1          0      )
                  (     0          0          1      )

 cart.    s( 1) = (  1.0000000  0.0000000  0.0000000 )
                  (  0.0000000  1.0000000  0.0000000 )
                  (  0.0000000  0.0000000  1.0000000 )

      isym =  2     inv. 180 deg rotation - cart. axis [1,0,0]

 cryst.   s( 2) = (    -1          0          0      )
                  (     0          1          0      )
                  (     0          0          1      )

 cart.    s( 2) = ( -1.0000000  0.0000000  0.0000000 )
                  (  0.0000000  1.0000000  0.0000000 )
                  (  0.0000000  0.0000000  1.0000000 )

     point group C_s (m)
     there are  2 classes
     the character table:

       E     s
A'     1.00  1.00
A''    1.00 -1.00

     the symmetry operations in each class and the name of the first element:

     E        1
          identity
     s        2
          inv. 180 deg rotation - cart. axis [1,0,0]

   Cartesian axes

     site n.     atom                  positions (alat units)
         1        Li     tau(   1) = (   0.5000000   0.5703294   3.6413700  )
         2        Li     tau(   2) = (   0.2499975   0.4423368   2.0584414  )
         3        Li     tau(   3) = (   0.2500007   0.1048392   2.2424142  )
         4        Li     tau(   4) = (   0.5000000   0.2283375   2.1199825  )
         5        Li     tau(   5) = (  -0.0000000   0.5116282   2.2601250  )
         6        Li     tau(   6) = (   0.5000000   0.1961786   2.4283566  )
         7        Li     tau(   7) = (   0.2500011   0.3226499   2.6596059  )
         8        Li     tau(   8) = (   0.2499991   0.5870752   2.8318302  )
         9        Li     tau(   9) = (   0.2500009   0.3764657   2.3563007  )
        10        Li     tau(  10) = (   0.2499997   0.0480561   2.5341134  )
        11        Li     tau(  11) = (  -0.0000000   0.4707777   2.5665615  )
        12        Li     tau(  12) = (   0.5000000   0.1510513   2.7349460  )
        13        Li     tau(  13) = (   0.5000000   0.4256304   2.8679686  )
        14        Li     tau(  14) = (   0.5000000   0.1037437   3.0402035  )
        15        Li     tau(  15) = (   0.2500028   0.5419246   3.1332527  )
        16        Li     tau(  16) = (   0.2499958   0.2302215   3.2714512  )
        17        Li     tau(  17) = (   0.2500003   0.2753476   2.9648610  )
        18        Li     tau(  18) = (  -0.0000000   0.3783381   3.1657125  )
        19        Li     tau(  19) = (   0.5000000   0.0499255   3.3435108  )
        20        Li     tau(  20) = (   0.5000000   0.3215779   3.4573682  )
        21        Li     tau(  21) = (   0.2499960   0.5010742   3.4396868  )
        22        Li     tau(  22) = (   0.2500338   0.1980636   3.5798231  )
        23        Li     tau(  23) = (   1.0000000   0.5704067   3.6413616  )
        24        Li     tau(  24) = (   0.7500025   0.4423368   2.0584414  )
        25        Li     tau(  25) = (   0.7499993   0.1048392   2.2424142  )
        26        Li     tau(  26) = (   1.0000000   0.2283348   2.1199839  )
        27        Li     tau(  27) = (   0.5000000   0.5116292   2.2601170  )
        28        Li     tau(  28) = (   1.0000000   0.1961818   2.4283558  )
        29        Li     tau(  29) = (   0.7499989   0.3226499   2.6596059  )
        30        Li     tau(  30) = (   0.7500009   0.5870752   2.8318302  )
        31        Li     tau(  31) = (   0.7499991   0.3764657   2.3563007  )
        32        Li     tau(  32) = (   0.7500003   0.0480561   2.5341134  )
        33        Li     tau(  33) = (   0.5000000   0.4707807   2.5665487  )
        34        Li     tau(  34) = (   1.0000000   0.1510563   2.7349472  )
        35        Li     tau(  35) = (   1.0000000   0.4256258   2.8679867  )
        36        Li     tau(  36) = (   1.0000000   0.1037591   3.0401995  )
        37        Li     tau(  37) = (   0.7499972   0.5419246   3.1332527  )
        38        Li     tau(  38) = (   0.7500042   0.2302215   3.2714512  )
        39        Li     tau(  39) = (   0.7499997   0.2753476   2.9648610  )
        40        Li     tau(  40) = (   0.5000000   0.3783528   3.1656775  )
        41        Li     tau(  41) = (   1.0000000   0.0499472   3.3435035  )
        42        Li     tau(  42) = (   1.0000000   0.3215464   3.4574208  )
        43        Li     tau(  43) = (   0.7500040   0.5010742   3.4396868  )
        44        Li     tau(  44) = (   0.7499662   0.1980636   3.5798231  )

   Crystallographic axes

     site n.     atom                  positions (cryst. coord.)
         1        Li     tau(   1) = (  0.5000000  0.9727570  0.6388580  )
         2        Li     tau(   2) = (  0.2499975  0.7544521  0.3611420  )
         3        Li     tau(   3) = (  0.2500007  0.1788144  0.3934190  )
         4        Li     tau(   4) = (  0.5000000  0.3894538  0.3719391  )
         5        Li     tau(   5) = ( -0.0000000  0.8726359  0.3965263  )
         6        Li     tau(   6) = (  0.5000000  0.3346034  0.4260416  )
         7        Li     tau(   7) = (  0.2500011  0.5503135  0.4666130  )
         8        Li     tau(   8) = (  0.2499991  1.0013188  0.4968288  )
         9        Li     tau(   9) = (  0.2500009  0.6421020  0.4133998  )
        10        Li     tau(  10) = (  0.2499997  0.0819647  0.4445960  )
        11        Li     tau(  11) = ( -0.0000000  0.8029611  0.4502889  )
        12        Li     tau(  12) = (  0.5000000  0.2576340  0.4798310  )
        13        Li     tau(  13) = (  0.5000000  0.7259576  0.5031690  )
        14        Li     tau(  14) = (  0.5000000  0.1769459  0.5333867  )
        15        Li     tau(  15) = (  0.2500028  0.9243096  0.5497116  )
        16        Li     tau(  16) = (  0.2499958  0.3926672  0.5739578  )
        17        Li     tau(  17) = (  0.2500003  0.4696344  0.5201683  )
[...]
     atom    7 type  1   force =    -0.00001632   -0.02584031   -4.06859494
     atom    8 type  1   force =    -0.00004811    0.02165924   -0.38312210
     atom    9 type  1   force =    -0.00001697   -0.03238422  -10.54590122
     atom   10 type  1   force =    -0.00003739    0.02007610   -6.76756367
     atom   11 type  1   force =    -0.00000001   -0.01876945   -6.08294692
     atom   12 type  1   force =    -0.00000001    0.02709291   -2.46428488
     atom   13 type  1   force =    -0.00000001   -0.02170683    0.38289713
     atom   14 type  1   force =    -0.00000001    0.02595406    4.06862806
     atom   15 type  1   force =    -0.00013692    0.01878409    6.08308593
     atom   16 type  1   force =     0.00002797   -0.02721516    9.02636305
     atom   17 type  1   force =     0.00000164   -0.02706701    2.46428357
     atom   18 type  1   force =    -0.00000000   -0.01993249    6.76796418
     atom   19 type  1   force =    -0.00000001    0.03255046   10.54597349
     atom   20 type  1   force =    -0.00000001   -0.02083674   13.13971198
     atom   21 type  1   force =    -0.00019213   -0.03010371   12.72140369
     atom   22 type  1   force =    -0.00005267    0.08915385   15.35976041
     atom   23 type  1   force =     0.00000002   -0.05219899   16.07690063
     atom   24 type  1   force =     0.00001113    0.05212706  -16.07698507
     atom   25 type  1   force =     0.00001567    0.02065897  -13.14032638
     atom   26 type  1   force =     0.00000001   -0.08914597  -15.35975872
     atom   27 type  1   force =    -0.00000000    0.03009657  -12.72150003
     atom   28 type  1   force =     0.00000002    0.02720482   -9.02637384
     atom   29 type  1   force =     0.00001631   -0.02584029   -4.06859496
     atom   30 type  1   force =     0.00004808    0.02165923   -0.38312210
     atom   31 type  1   force =     0.00001698   -0.03238419  -10.54590122
     atom   32 type  1   force =     0.00003739    0.02007608   -6.76756368
     atom   33 type  1   force =    -0.00000000   -0.01880298   -6.08322597
     atom   34 type  1   force =     0.00000003    0.02704486   -2.46429003
     atom   35 type  1   force =     0.00000003   -0.02161414    0.38335487
     atom   36 type  1   force =     0.00000003    0.02572917    4.06854931
     atom   37 type  1   force =     0.00013691    0.01878407    6.08308594
     atom   38 type  1   force =    -0.00002798   -0.02721514    9.02636304
     atom   39 type  1   force =    -0.00000165   -0.02706701    2.46428359
     atom   40 type  1   force =    -0.00000001   -0.02021766    6.76718482
     atom   41 type  1   force =     0.00000004    0.03220709   10.54581615
     atom   42 type  1   force =     0.00000004   -0.02046593   13.14098594
     atom   43 type  1   force =     0.00019210   -0.03010371   12.72140368
     atom   44 type  1   force =     0.00005265    0.08915385   15.35976042
     The local contribution  to forces
     atom    1 type  1   force =     0.00000197    0.03996303  -16.19096326
     atom    2 type  1   force =     0.00001720   -0.04002767   16.19086823
     atom    3 type  1   force =     0.00001886   -0.03100480   13.14126781
     atom    4 type  1   force =     0.00000196    0.07972423   15.43103739
     atom    5 type  1   force =     0.00000058   -0.01813253   12.71454897
     atom    6 type  1   force =     0.00000196   -0.02908869    9.01934806
     atom    7 type  1   force =     0.00001925    0.02808200    4.06796348
     atom    8 type  1   force =     0.00005096   -0.02429363    0.37905244
     atom    9 type  1   force =     0.00002045    0.03602831   10.54576632
     atom   10 type  1   force =     0.00004062   -0.02353358    6.76097239
     atom   11 type  1   force =     0.00000058    0.02258312    6.08252834
     atom   12 type  1   force =     0.00000196   -0.02913865    2.46012236
     atom   13 type  1   force =     0.00000196    0.02434299   -0.37882167
     atom   14 type  1   force =     0.00000196   -0.02819811   -4.06799559
     atom   15 type  1   force =     0.00013947   -0.02259822   -6.08266409
     atom   16 type  1   force =    -0.00002442    0.02907601   -9.01933081
     atom   17 type  1   force =     0.00000136    0.02911177   -2.46011835
     atom   18 type  1   force =     0.00000058    0.02338747   -6.76136880
     atom   19 type  1   force =     0.00000196   -0.03619610  -10.54583213
     atom   20 type  1   force =     0.00000196    0.03118510  -13.14064586
     atom   21 type  1   force =     0.00019615    0.01813605  -12.71464015
     atom   22 type  1   force =     0.00004949   -0.07973321  -15.43100984
     atom   23 type  1   force =     0.00000336    0.04010706  -16.19077518
     atom   24 type  1   force =    -0.00001326   -0.04002825   16.19086823
     atom   25 type  1   force =    -0.00001493   -0.03100480   13.14126721
     atom   26 type  1   force =     0.00000335    0.07972555   15.43101512
     atom   27 type  1   force =     0.00000196   -0.01812856   12.71474074
     atom   28 type  1   force =     0.00000334   -0.02906525    9.01934722
     atom   29 type  1   force =    -0.00001533    0.02808200    4.06796348
     atom   30 type  1   force =    -0.00004704   -0.02429363    0.37905244
     atom   31 type  1   force =    -0.00001594    0.03602831   10.54576632
     atom   32 type  1   force =    -0.00003670   -0.02353358    6.76097239
     atom   33 type  1   force =     0.00000196    0.02261737    6.08280880
     atom   34 type  1   force =     0.00000334   -0.02908892    2.46013042
     atom   35 type  1   force =     0.00000334    0.02424705   -0.37928297
     atom   36 type  1   force =     0.00000334   -0.02796833   -4.06791036
     atom   37 type  1   force =    -0.00013555   -0.02259822   -6.08266409
     atom   38 type  1   force =     0.00002834    0.02907601   -9.01933081
     atom   39 type  1   force =     0.00000314    0.02911177   -2.46011835
     atom   40 type  1   force =     0.00000196    0.02367764   -6.76058957
     atom   41 type  1   force =     0.00000334   -0.03584952  -10.54567875
     atom   42 type  1   force =     0.00000334    0.03080837  -13.14192653
     atom   43 type  1   force =    -0.00019224    0.01813605  -12.71464015
     atom   44 type  1   force =    -0.00004556   -0.07973321  -15.43100984
     The core correction contribution to forces
     atom    1 type  1   force =     0.00000000    0.00000000    0.00000000
     atom    2 type  1   force =     0.00000000    0.00000000    0.00000000
     atom    3 type  1   force =     0.00000000    0.00000000    0.00000000
     atom    4 type  1   force =     0.00000000    0.00000000    0.00000000
     atom    5 type  1   force =     0.00000000    0.00000000    0.00000000
     atom    6 type  1   force =     0.00000000    0.00000000    0.00000000
     atom    7 type  1   force =     0.00000000    0.00000000    0.00000000
     atom    8 type  1   force =     0.00000000    0.00000000    0.00000000
     atom    9 type  1   force =     0.00000000    0.00000000    0.00000000
     atom   10 type  1   force =     0.00000000    0.00000000    0.00000000
     atom   11 type  1   force =     0.00000000    0.00000000    0.00000000
     atom   12 type  1   force =     0.00000000    0.00000000    0.00000000
     atom   13 type  1   force =     0.00000000    0.00000000    0.00000000
     atom   14 type  1   force =     0.00000000    0.00000000    0.00000000
     atom   15 type  1   force =     0.00000000    0.00000000    0.00000000
     atom   16 type  1   force =     0.00000000    0.00000000    0.00000000
     atom   17 type  1   force =     0.00000000    0.00000000    0.00000000
     atom   18 type  1   force =     0.00000000    0.00000000    0.00000000
     atom   19 type  1   force =     0.00000000    0.00000000    0.00000000
     atom   20 type  1   force =     0.00000000    0.00000000    0.00000000
     atom   21 type  1   force =     0.00000000    0.00000000    0.00000000
     atom   22 type  1   force =     0.00000000    0.00000000    0.00000000
     atom   23 type  1   force =     0.00000000    0.00000000    0.00000000
     atom   24 type  1   force =     0.00000000    0.00000000    0.00000000
     atom   25 type  1   force =     0.00000000    0.00000000    0.00000000
     atom   26 type  1   force =     0.00000000    0.00000000    0.00000000
     atom   27 type  1   force =     0.00000000    0.00000000    0.00000000
     atom   28 type  1   force =     0.00000000    0.00000000    0.00000000
     atom   29 type  1   force =     0.00000000    0.00000000    0.00000000
     atom   30 type  1   force =     0.00000000    0.00000000    0.00000000
     atom   31 type  1   force =     0.00000000    0.00000000    0.00000000
     atom   32 type  1   force =     0.00000000    0.00000000    0.00000000
     atom   33 type  1   force =     0.00000000    0.00000000    0.00000000
     atom   34 type  1   force =     0.00000000    0.00000000    0.00000000
     atom   35 type  1   force =     0.00000000    0.00000000    0.00000000
     atom   36 type  1   force =     0.00000000    0.00000000    0.00000000
     atom   37 type  1   force =     0.00000000    0.00000000    0.00000000
     atom   38 type  1   force =     0.00000000    0.00000000    0.00000000
     atom   39 type  1   force =     0.00000000    0.00000000    0.00000000
     atom   40 type  1   force =     0.00000000    0.00000000    0.00000000
     atom   41 type  1   force =     0.00000000    0.00000000    0.00000000
     atom   42 type  1   force =     0.00000000    0.00000000    0.00000000
     atom   43 type  1   force =     0.00000000    0.00000000    0.00000000
     atom   44 type  1   force =     0.00000000    0.00000000    0.00000000
     The Hubbard contrib.    to forces
     atom    1 type  1   force =     0.00000000    0.00000000    0.00000000
     atom    2 type  1   force =     0.00000000    0.00000000    0.00000000
     atom    3 type  1   force =     0.00000000    0.00000000    0.00000000
     atom    4 type  1   force =     0.00000000    0.00000000    0.00000000
     atom    5 type  1   force =     0.00000000    0.00000000    0.00000000
     atom    6 type  1   force =     0.00000000    0.00000000    0.00000000
     atom    7 type  1   force =     0.00000000    0.00000000    0.00000000
     atom    8 type  1   force =     0.00000000    0.00000000    0.00000000
     atom    9 type  1   force =     0.00000000    0.00000000    0.00000000
     atom   10 type  1   force =     0.00000000    0.00000000    0.00000000
     atom   11 type  1   force =     0.00000000    0.00000000    0.00000000
     atom   12 type  1   force =     0.00000000    0.00000000    0.00000000
     atom   13 type  1   force =     0.00000000    0.00000000    0.00000000
     atom   14 type  1   force =     0.00000000    0.00000000    0.00000000
     atom   15 type  1   force =     0.00000000    0.00000000    0.00000000
     atom   16 type  1   force =     0.00000000    0.00000000    0.00000000
     atom   17 type  1   force =     0.00000000    0.00000000    0.00000000
     atom   18 type  1   force =     0.00000000    0.00000000    0.00000000
     atom   19 type  1   force =     0.00000000    0.00000000    0.00000000
     atom   20 type  1   force =     0.00000000    0.00000000    0.00000000
     atom   21 type  1   force =     0.00000000    0.00000000    0.00000000
     atom   22 type  1   force =     0.00000000    0.00000000    0.00000000
     atom   23 type  1   force =     0.00000000    0.00000000    0.00000000
     atom   24 type  1   force =     0.00000000    0.00000000    0.00000000
     atom   25 type  1   force =     0.00000000    0.00000000    0.00000000
     atom   26 type  1   force =     0.00000000    0.00000000    0.00000000
     atom   27 type  1   force =     0.00000000    0.00000000    0.00000000
     atom   28 type  1   force =     0.00000000    0.00000000    0.00000000
     atom   29 type  1   force =     0.00000000    0.00000000    0.00000000
     atom   30 type  1   force =     0.00000000    0.00000000    0.00000000
     atom   31 type  1   force =     0.00000000    0.00000000    0.00000000
     atom   32 type  1   force =     0.00000000    0.00000000    0.00000000
     atom   33 type  1   force =     0.00000000    0.00000000    0.00000000
     atom   34 type  1   force =     0.00000000    0.00000000    0.00000000
     atom   35 type  1   force =     0.00000000    0.00000000    0.00000000
     atom   36 type  1   force =     0.00000000    0.00000000    0.00000000
     atom   37 type  1   force =     0.00000000    0.00000000    0.00000000
     atom   38 type  1   force =     0.00000000    0.00000000    0.00000000
     atom   39 type  1   force =     0.00000000    0.00000000    0.00000000
     atom   40 type  1   force =     0.00000000    0.00000000    0.00000000
     atom   41 type  1   force =     0.00000000    0.00000000    0.00000000
     atom   42 type  1   force =     0.00000000    0.00000000    0.00000000
     atom   43 type  1   force =     0.00000000    0.00000000    0.00000000
     atom   44 type  1   force =     0.00000000    0.00000000    0.00000000
     The SCF correction term to forces
     atom    1 type  1   force =     0.00000000    0.00000001    0.00000001
     atom    2 type  1   force =    -0.00000000   -0.00000001   -0.00000002
     atom    3 type  1   force =    -0.00000001    0.00000001   -0.00000002
     atom    4 type  1   force =    -0.00000000    0.00000001   -0.00000001
     atom    5 type  1   force =     0.00000000   -0.00000001   -0.00000001
     atom    6 type  1   force =    -0.00000000   -0.00000001   -0.00000001
     atom    7 type  1   force =    -0.00000000    0.00000000   -0.00000001
     atom    8 type  1   force =    -0.00000000    0.00000000   -0.00000001
     atom    9 type  1   force =    -0.00000001    0.00000000    0.00000000
     atom   10 type  1   force =    -0.00000000   -0.00000001    0.00000000
     atom   11 type  1   force =    -0.00000000    0.00000001    0.00000000
     atom   12 type  1   force =    -0.00000000   -0.00000000   -0.00000001
     atom   13 type  1   force =    -0.00000000   -0.00000000   -0.00000001
     atom   14 type  1   force =    -0.00000000   -0.00000000   -0.00000002
     atom   15 type  1   force =    -0.00000000   -0.00000000   -0.00000002
     atom   16 type  1   force =     0.00000000    0.00000001   -0.00000002
     atom   17 type  1   force =    -0.00000000    0.00000000   -0.00000001
     atom   18 type  1   force =    -0.00000000    0.00000000   -0.00000003
     atom   19 type  1   force =    -0.00000000   -0.00000000   -0.00000002
     atom   20 type  1   force =     0.00000000   -0.00000001   -0.00000000
     atom   21 type  1   force =     0.00000000    0.00000001   -0.00000001
     atom   22 type  1   force =     0.00000000   -0.00000001   -0.00000001
     atom   23 type  1   force =     0.00000000    0.00000001    0.00000002
     atom   24 type  1   force =     0.00000000   -0.00000001   -0.00000002
     atom   25 type  1   force =     0.00000001    0.00000001   -0.00000002
     atom   26 type  1   force =     0.00000000    0.00000001   -0.00000001
     atom   27 type  1   force =    -0.00000000   -0.00000000   -0.00000002
     atom   28 type  1   force =    -0.00000000   -0.00000001   -0.00000001
     atom   29 type  1   force =     0.00000000    0.00000000   -0.00000001
     atom   30 type  1   force =     0.00000000    0.00000000   -0.00000001
     atom   31 type  1   force =     0.00000001    0.00000000    0.00000000
     atom   32 type  1   force =     0.00000000   -0.00000001    0.00000000
     atom   33 type  1   force =    -0.00000000    0.00000001    0.00000001
     atom   34 type  1   force =    -0.00000000    0.00000000   -0.00000002
     atom   35 type  1   force =     0.00000000   -0.00000000   -0.00000001
     atom   36 type  1   force =     0.00000000   -0.00000000   -0.00000002
     atom   37 type  1   force =     0.00000000   -0.00000000   -0.00000002
     atom   38 type  1   force =    -0.00000000    0.00000001   -0.00000001
     atom   39 type  1   force =     0.00000000    0.00000000   -0.00000001
     atom   40 type  1   force =     0.00000000    0.00000001   -0.00000003
     atom   41 type  1   force =    -0.00000000   -0.00000000   -0.00000002
     atom   42 type  1   force =    -0.00000000   -0.00000001    0.00000000
     atom   43 type  1   force =    -0.00000000    0.00000001   -0.00000001
     atom   44 type  1   force =    -0.00000000   -0.00000001   -0.00000001

     Total force =     0.000243     Total SCF correction =     0.000000
     Message from routine punch:
     Nothing written, as per user request (disk_io='none')

     General routines

     Parallel routines

     PAW routines

     Environ routines

   This run was terminated on:  12:12:24  28Dec2024

   JOB DONE.