     Program PWSCF v.7.4 starts on 20Jan2025 at  4:25:33

     Reading input from espresso.pwi
Warning: card &CELL ignored
Warning: card    PRESS_CONV_THR   = 0.1 ignored
Warning: card    CELL_DOFREE      = 'ALL' ignored
Warning: card / ignored
Warning: card &FCP ignored
Warning: card / ignored
Warning: card &RISM ignored
Warning: card / ignored

     Current dimensions of program PWSCF are:
     Max number of different atomic species (ntypx) = 10
     Max number of k-points (npk) =  40000
     Max angular momentum in pseudopotentials (lmaxx) =  4

     IMPORTANT: XC functional enforced from input :
     Exchange-correlation= PBE
                           (   1   4   3   4   0   0   0)
     Any further DFT definition will be discarded
     Please, verify this is what you really want

     Reading input from environ.in:
     * using ionic solvent mode
     * setting boundary derivatives method to SSCS default
     * setting electrolyte-boundary derivatives method to SSCS default

Environ Warning (1001): card EOF ignored

     K-points division:     npool     =       2
     R & G space division:  proc/nbgrp/npool/nimage =     256
     Subspace diagonalization in iterative solution of the eigenvalue problem:
     a serial algorithm will be used

     Using Slab Decomposition

     bravais-lattice index     =            8
     lattice parameter (alat)  =      18.3607  a.u.
     unit-cell volume          =   20684.8735 (a.u.)^3
     number of atoms/cell      =           44
     number of atomic types    =            1
     number of electrons       =       132.00
     number of Kohn-Sham states=           99
     kinetic-energy cutoff     =      80.0000  Ry
     charge density cutoff     =     800.0000  Ry
     scf convergence threshold =      1.0E-16
     mixing beta               =       0.2000
     number of iterations used =            8  local-TF  mixing
     Exchange-correlation= PBE
                           (   1   4   3   4   0   0   0)

                                  Environ Setup Summary

          O. Andreussi, I. Dabo and N. Marzari, J. Chem. Phys. 136, 064102 (2012)
          F. Nattino, M. Truscott, N. Marzari, and O. Andreussi, J. Chem. Phys. 150, 041722 (2019)

     in publications or presentations arising from this work.

     Parameters

     compensation onset threshold      =               0.1000E+00
     static permittivity               =                    89.90
     surface tension in input (dyn/cm) =                    37.30
     surface tension in internal units =               0.4792E-04

     Solvent Boundary

     solvent mode                      =                    ionic
     derivatives method                =                   lowmem
     electrolyte derivatives method    =                   lowmem
     numerical core for derivatives    =                      fft
     switching function adopted        =                     SCCS
     density limit for vacuum region   =               0.5000E-02
     density limit for bulk solvent    =               0.1000E-03
     soft-sphere radius mode           =                    bondi
     soft-sphere softness              =                     0.50
     alpha                             =                     1.32

     Electrostatic Setup

     electrostatic problem to solve    =                    modpb
     numerical solver adopted          =                   newton
     type of auxiliary density adopted =                     none
     numerical core for poisson        =                      fft
     adopting a nested solver scheme
     inner solver                      =                       cg
     inner core                        =                      fft
     type of pbc corrections           =                parabolic
     numerical core for corrections    =                      1da

     >>>>> Grand-Canonical SCF is activated <<<<<
     Initial Total Charge  =     0.000000 e
     Target Fermi Energy   =    -4.904000 eV
     Thr. of Fermi Energy  =     0.001000 eV
     Wave-shift of Kerker  =     0.400000 bohr^-1
     Wave-shift of Hartree =     1.500000 bohr^-1
     Mixing Rate of Fermi  =     0.050000

     celldm(1)=  18.360747  celldm(2)=   0.586302  celldm(3)=   5.699811
     celldm(4)=   0.000000  celldm(5)=   0.000000  celldm(6)=   0.000000

     crystal axes: (cart. coord. in units of alat)
               a(1) = (   1.000000   0.000000   0.000000 )
               a(2) = (   0.000000   0.586302   0.000000 )
               a(3) = (   0.000000   0.000000   5.699811 )

     reciprocal axes: (cart. coord. in units 2 pi/alat)
               b(1) = (  1.000000  0.000000  0.000000 )
               b(2) = (  0.000000  1.705606  0.000000 )
               b(3) = (  0.000000  0.000000  0.175444 )

     PseudoPot. # 1 for Li read from file:
     /work/e89/e89/ba3g18/Repos/Pseudopotentials/Pslibrary/Li.pbe-sl-kjpaw_psl.1.0.0.UPF
     MD5 check sum: 3f4d2cafebb47c6c3aa8ed472e6f074d
     Pseudo is Projector augmented-wave, Zval =  3.0
     Generated using 'atomic' code by A. Dal Corso  v.7.4
     Shape of augmentation charge: PSQ
     Using radial grid of 1017 points,  4 beta functions with:
                l(1) =   0
                l(2) =   0
                l(3) =   1
                l(4) =   1
     Q(r) pseudized with 0 coefficients

     atomic species   valence    mass     pseudopotential
     Li                3.00     6.94000     Li( 1.00)

      2 Sym. Ops. (no inversion) found

                                    s                        frac. trans.

      isym =  1     identity

 cryst.   s( 1) = (     1          0          0      )
                  (     0          1          0      )
                  (     0          0          1      )

 cart.    s( 1) = (  1.0000000  0.0000000  0.0000000 )
                  (  0.0000000  1.0000000  0.0000000 )
                  (  0.0000000  0.0000000  1.0000000 )

      isym =  2     inv. 180 deg rotation - cart. axis [1,0,0]

 cryst.   s( 2) = (    -1          0          0      )
                  (     0          1          0      )
                  (     0          0          1      )

 cart.    s( 2) = ( -1.0000000  0.0000000  0.0000000 )
                  (  0.0000000  1.0000000  0.0000000 )
                  (  0.0000000  0.0000000  1.0000000 )

     point group C_s (m)
     there are  2 classes
     the character table:

       E     s
A'     1.00  1.00
A''    1.00 -1.00

     the symmetry operations in each class and the name of the first element:

     E        1
          identity
     s        2
          inv. 180 deg rotation - cart. axis [1,0,0]

   Cartesian axes

     site n.     atom                  positions (alat units)
         1        Li     tau(   1) = (   0.5000000   0.5316186   3.7167662  )
         2        Li     tau(   2) = (   0.2500053   0.4809396   1.9830272  )
         3        Li     tau(   3) = (   0.2500043   0.0962070   2.2567782  )
         4        Li     tau(   4) = (   0.5000000   0.2219521   2.0940360  )
         5        Li     tau(   5) = (  -0.0000000   0.5056859   2.2600577  )
         6        Li     tau(   6) = (   0.5000000   0.1942794   2.4182425  )
         7        Li     tau(   7) = (   0.2500060   0.3214925   2.6539933  )
         8        Li     tau(   8) = (   0.2499980   0.5870728   2.8368915  )
         9        Li     tau(   9) = (   0.2500016   0.3767268   2.3425177  )
        10        Li     tau(  10) = (   0.2499973   0.0439185   2.5373008  )
        11        Li     tau(  11) = (  -0.0000000   0.4676910   2.5622375  )
        12        Li     tau(  12) = (   0.5000000   0.1485497   2.7332640  )
        13        Li     tau(  13) = (   0.5000000   0.4256394   2.8628856  )
        14        Li     tau(  14) = (   0.5000000   0.1049076   3.0458327  )
        15        Li     tau(  15) = (   0.2499974   0.5450072   3.1375948  )
        16        Li     tau(  16) = (   0.2500004   0.2321188   3.2815712  )
        17        Li     tau(  17) = (   0.2500060   0.2778476   2.9665573  )
        18        Li     tau(  18) = (  -0.0000000   0.3824652   3.1625556  )
        19        Li     tau(  19) = (   0.5000000   0.0497122   3.3573274  )
        20        Li     tau(  20) = (   0.5000000   0.3302614   3.4429500  )
        21        Li     tau(  21) = (   0.2499901   0.5070219   3.4397669  )
        22        Li     tau(  22) = (   0.2501597   0.2044533   3.6057548  )
        23        Li     tau(  23) = (   1.0000000   0.5318881   3.7167475  )
        24        Li     tau(  24) = (   0.7499947   0.4809396   1.9830272  )
        25        Li     tau(  25) = (   0.7499957   0.0962070   2.2567782  )
        26        Li     tau(  26) = (   1.0000000   0.2219532   2.0940401  )
        27        Li     tau(  27) = (   0.5000000   0.5056776   2.2600354  )
        28        Li     tau(  28) = (   1.0000000   0.1942870   2.4182334  )
        29        Li     tau(  29) = (   0.7499940   0.3214925   2.6539933  )
        30        Li     tau(  30) = (   0.7500020   0.5870728   2.8368915  )
        31        Li     tau(  31) = (   0.7499984   0.3767268   2.3425177  )
        32        Li     tau(  32) = (   0.7500027   0.0439185   2.5373008  )
        33        Li     tau(  33) = (   0.5000000   0.4677004   2.5622022  )
        34        Li     tau(  34) = (   1.0000000   0.1485588   2.7332425  )
        35        Li     tau(  35) = (   1.0000000   0.4256205   2.8629570  )
        36        Li     tau(  36) = (   1.0000000   0.1049090   3.0458022  )
        37        Li     tau(  37) = (   0.7500026   0.5450072   3.1375948  )
        38        Li     tau(  38) = (   0.7499996   0.2321188   3.2815712  )
        39        Li     tau(  39) = (   0.7499940   0.2778476   2.9665573  )
        40        Li     tau(  40) = (   0.5000000   0.3825038   3.1624376  )
        41        Li     tau(  41) = (   1.0000000   0.0496550   3.3572632  )
        42        Li     tau(  42) = (   1.0000000   0.3301199   3.4431454  )
        43        Li     tau(  43) = (   0.7500099   0.5070219   3.4397669  )
        44        Li     tau(  44) = (   0.7498403   0.2044533   3.6057548  )

   Crystallographic axes

     site n.     atom                  positions (cryst. coord.)
         1        Li     tau(   1) = (  0.5000000  0.9067317  0.6520859  )
         2        Li     tau(   2) = (  0.2500053  0.8202933  0.3479110  )
         3        Li     tau(   3) = (  0.2500043  0.1640913  0.3959391  )
         4        Li     tau(   4) = (  0.5000000  0.3785627  0.3673869  )
         5        Li     tau(   5) = (  0.0000000  0.8625007  0.3965145  )
         6        Li     tau(   6) = (  0.5000000  0.3313640  0.4242671  )
         7        Li     tau(   7) = (  0.2500060  0.5483394  0.4656283  )
         8        Li     tau(   8) = (  0.2499980  1.0013148  0.4977168  )
         9        Li     tau(   9) = (  0.2500016  0.6425473  0.4109816  )
        10        Li     tau(  10) = (  0.2499973  0.0749077  0.4451553  )
        11        Li     tau(  11) = (  0.0000000  0.7976965  0.4495302  )
        12        Li     tau(  12) = (  0.5000000  0.2533672  0.4795359  )
        13        Li     tau(  13) = (  0.5000000  0.7259730  0.5022773  )
[...]
     atom    7 type  1   force =    -0.00011109   -0.03946935   -4.11878869
     atom    8 type  1   force =    -0.00015816    0.03574098   -0.27314944
     atom    9 type  1   force =    -0.00008173   -0.07085745  -10.79419288
     atom   10 type  1   force =    -0.00008031    0.03429468   -6.54663401
     atom   11 type  1   force =    -0.00000001   -0.03846684   -6.07191991
     atom   12 type  1   force =    -0.00000001    0.04371970   -2.45552100
     atom   13 type  1   force =    -0.00000001   -0.03573530    0.27235025
     atom   14 type  1   force =    -0.00000001    0.03945179    4.11906468
     atom   15 type  1   force =    -0.00021150    0.03846619    6.07244484
     atom   16 type  1   force =    -0.00039511   -0.06689408    9.09582299
     atom   17 type  1   force =    -0.00017033   -0.04373111    2.45566373
     atom   18 type  1   force =     0.00000000   -0.03433154    6.54789973
     atom   19 type  1   force =    -0.00000001    0.07069841   10.79456533
     atom   20 type  1   force =    -0.00000001   -0.06685414   12.66149244
     atom   21 type  1   force =    -0.00061010    0.05036217   12.55688377
     atom   22 type  1   force =    -0.00064902   -0.00797027   15.13063419
     atom   23 type  1   force =     0.00000002    0.00231351   15.80354023
     atom   24 type  1   force =     0.00008736   -0.00229359  -15.80364917
     atom   25 type  1   force =     0.00007202    0.06697052  -12.66362242
     atom   26 type  1   force =     0.00000001    0.00791044  -15.13058071
     atom   27 type  1   force =    -0.00000000   -0.05035517  -12.55713202
     atom   28 type  1   force =     0.00000002    0.06695186   -9.09601506
     atom   29 type  1   force =     0.00011109   -0.03946933   -4.11878871
     atom   30 type  1   force =     0.00015813    0.03574098   -0.27314945
     atom   31 type  1   force =     0.00008174   -0.07085743  -10.79419288
     atom   32 type  1   force =     0.00008031    0.03429466   -6.54663401
     atom   33 type  1   force =    -0.00000000   -0.03846124   -6.07276253
     atom   34 type  1   force =     0.00000003    0.04369188   -2.45587505
     atom   35 type  1   force =     0.00000003   -0.03570748    0.27387362
     atom   36 type  1   force =     0.00000003    0.03947547    4.11850872
     atom   37 type  1   force =     0.00021149    0.03846617    6.07244484
     atom   38 type  1   force =     0.00039510   -0.06689407    9.09582298
     atom   39 type  1   force =     0.00017031   -0.04373110    2.45566374
     atom   40 type  1   force =    -0.00000001   -0.03425916    6.54519696
     atom   41 type  1   force =     0.00000004    0.07078085   10.79371347
     atom   42 type  1   force =     0.00000003   -0.06692838   12.66588011
     atom   43 type  1   force =     0.00061008    0.05036216   12.55688376
     atom   44 type  1   force =     0.00064901   -0.00797027   15.13063420
     The local contribution  to forces
     atom    1 type  1   force =     0.00000137   -0.00266347  -15.84461700
     atom    2 type  1   force =     0.00010320    0.00251808   15.84413332
     atom    3 type  1   force =     0.00007709   -0.09127970   12.82677085
     atom    4 type  1   force =     0.00000136   -0.00248277   15.32837595
     atom    5 type  1   force =     0.00000000    0.05787668   12.71539932
     atom    6 type  1   force =     0.00000136   -0.06749954    9.18846496
     atom    7 type  1   force =     0.00011872    0.04263188    4.16681257
     atom    8 type  1   force =     0.00016167   -0.03961851    0.27277606
     atom    9 type  1   force =     0.00008878    0.07953954   10.92019738
     atom   10 type  1   force =     0.00008327   -0.03660893    6.61897274
     atom   11 type  1   force =     0.00000000    0.04188037    6.13746104
     atom   12 type  1   force =     0.00000136   -0.04483809    2.48252415
     atom   13 type  1   force =     0.00000136    0.03961156   -0.27183649
     atom   14 type  1   force =     0.00000136   -0.04261614   -4.16698164
     atom   15 type  1   force =     0.00021320   -0.04187979   -6.13787350
     atom   16 type  1   force =     0.00042593    0.06744221   -9.18833216
     atom   17 type  1   force =     0.00018002    0.04485197   -2.48255063
     atom   18 type  1   force =     0.00000000    0.03664389   -6.62012388
     atom   19 type  1   force =     0.00000136   -0.07937137  -10.92043544
     atom   20 type  1   force =     0.00000136    0.09113670  -12.82431376
     atom   21 type  1   force =     0.00066094   -0.05785739  -12.71543280
     atom   22 type  1   force =     0.00074635    0.00259286  -15.32831929
     atom   23 type  1   force =     0.00000274   -0.00251926  -15.84398934
     atom   24 type  1   force =    -0.00010047    0.00251808   15.84413332
     atom   25 type  1   force =    -0.00007437   -0.09127970   12.82677085
     atom   26 type  1   force =     0.00000273   -0.00252409   15.32835104
     atom   27 type  1   force =     0.00000136    0.05784399   12.71580117
     atom   28 type  1   force =     0.00000272   -0.06750307    9.18865678
     atom   29 type  1   force =    -0.00011601    0.04263188    4.16681257
     atom   30 type  1   force =    -0.00015896   -0.03961851    0.27277606
     atom   31 type  1   force =    -0.00008606    0.07953954   10.92019738
     atom   32 type  1   force =    -0.00008055   -0.03660893    6.61897274
     atom   33 type  1   force =     0.00000136    0.04187714    6.13831968
     atom   34 type  1   force =     0.00000272   -0.04481043    2.48290013
     atom   35 type  1   force =     0.00000272    0.03958363   -0.27339216
     atom   36 type  1   force =     0.00000272   -0.04263898   -4.16639451
     atom   37 type  1   force =    -0.00021049   -0.04187979   -6.13787350
     atom   38 type  1   force =    -0.00042322    0.06744221   -9.18833216
     atom   39 type  1   force =    -0.00017730    0.04485197   -2.48255063
     atom   40 type  1   force =     0.00000136    0.03657006   -6.61738105
     atom   41 type  1   force =     0.00000272   -0.07946548  -10.91959239
     atom   42 type  1   force =     0.00000272    0.09125683  -12.82909214
     atom   43 type  1   force =    -0.00065822   -0.05785739  -12.71543280
     atom   44 type  1   force =    -0.00074362    0.00259286  -15.32831929
     The core correction contribution to forces
     atom    1 type  1   force =     0.00000000    0.00000000    0.00000000
     atom    2 type  1   force =     0.00000000    0.00000000    0.00000000
     atom    3 type  1   force =     0.00000000    0.00000000    0.00000000
     atom    4 type  1   force =     0.00000000    0.00000000    0.00000000
     atom    5 type  1   force =     0.00000000    0.00000000    0.00000000
     atom    6 type  1   force =     0.00000000    0.00000000    0.00000000
     atom    7 type  1   force =     0.00000000    0.00000000    0.00000000
     atom    8 type  1   force =     0.00000000    0.00000000    0.00000000
     atom    9 type  1   force =     0.00000000    0.00000000    0.00000000
     atom   10 type  1   force =     0.00000000    0.00000000    0.00000000
     atom   11 type  1   force =     0.00000000    0.00000000    0.00000000
     atom   12 type  1   force =     0.00000000    0.00000000    0.00000000
     atom   13 type  1   force =     0.00000000    0.00000000    0.00000000
     atom   14 type  1   force =     0.00000000    0.00000000    0.00000000
     atom   15 type  1   force =     0.00000000    0.00000000    0.00000000
     atom   16 type  1   force =     0.00000000    0.00000000    0.00000000
     atom   17 type  1   force =     0.00000000    0.00000000    0.00000000
     atom   18 type  1   force =     0.00000000    0.00000000    0.00000000
     atom   19 type  1   force =     0.00000000    0.00000000    0.00000000
     atom   20 type  1   force =     0.00000000    0.00000000    0.00000000
     atom   21 type  1   force =     0.00000000    0.00000000    0.00000000
     atom   22 type  1   force =     0.00000000    0.00000000    0.00000000
     atom   23 type  1   force =     0.00000000    0.00000000    0.00000000
     atom   24 type  1   force =     0.00000000    0.00000000    0.00000000
     atom   25 type  1   force =     0.00000000    0.00000000    0.00000000
     atom   26 type  1   force =     0.00000000    0.00000000    0.00000000
     atom   27 type  1   force =     0.00000000    0.00000000    0.00000000
     atom   28 type  1   force =     0.00000000    0.00000000    0.00000000
     atom   29 type  1   force =     0.00000000    0.00000000    0.00000000
     atom   30 type  1   force =     0.00000000    0.00000000    0.00000000
     atom   31 type  1   force =     0.00000000    0.00000000    0.00000000
     atom   32 type  1   force =     0.00000000    0.00000000    0.00000000
     atom   33 type  1   force =     0.00000000    0.00000000    0.00000000
     atom   34 type  1   force =     0.00000000    0.00000000    0.00000000
     atom   35 type  1   force =     0.00000000    0.00000000    0.00000000
     atom   36 type  1   force =     0.00000000    0.00000000    0.00000000
     atom   37 type  1   force =     0.00000000    0.00000000    0.00000000
     atom   38 type  1   force =     0.00000000    0.00000000    0.00000000
     atom   39 type  1   force =     0.00000000    0.00000000    0.00000000
     atom   40 type  1   force =     0.00000000    0.00000000    0.00000000
     atom   41 type  1   force =     0.00000000    0.00000000    0.00000000
     atom   42 type  1   force =     0.00000000    0.00000000    0.00000000
     atom   43 type  1   force =     0.00000000    0.00000000    0.00000000
     atom   44 type  1   force =     0.00000000    0.00000000    0.00000000
     The Hubbard contrib.    to forces
     atom    1 type  1   force =     0.00000000    0.00000000    0.00000000
     atom    2 type  1   force =     0.00000000    0.00000000    0.00000000
     atom    3 type  1   force =     0.00000000    0.00000000    0.00000000
     atom    4 type  1   force =     0.00000000    0.00000000    0.00000000
     atom    5 type  1   force =     0.00000000    0.00000000    0.00000000
     atom    6 type  1   force =     0.00000000    0.00000000    0.00000000
     atom    7 type  1   force =     0.00000000    0.00000000    0.00000000
     atom    8 type  1   force =     0.00000000    0.00000000    0.00000000
     atom    9 type  1   force =     0.00000000    0.00000000    0.00000000
     atom   10 type  1   force =     0.00000000    0.00000000    0.00000000
     atom   11 type  1   force =     0.00000000    0.00000000    0.00000000
     atom   12 type  1   force =     0.00000000    0.00000000    0.00000000
     atom   13 type  1   force =     0.00000000    0.00000000    0.00000000
     atom   14 type  1   force =     0.00000000    0.00000000    0.00000000
     atom   15 type  1   force =     0.00000000    0.00000000    0.00000000
     atom   16 type  1   force =     0.00000000    0.00000000    0.00000000
     atom   17 type  1   force =     0.00000000    0.00000000    0.00000000
     atom   18 type  1   force =     0.00000000    0.00000000    0.00000000
     atom   19 type  1   force =     0.00000000    0.00000000    0.00000000
     atom   20 type  1   force =     0.00000000    0.00000000    0.00000000
     atom   21 type  1   force =     0.00000000    0.00000000    0.00000000
     atom   22 type  1   force =     0.00000000    0.00000000    0.00000000
     atom   23 type  1   force =     0.00000000    0.00000000    0.00000000
     atom   24 type  1   force =     0.00000000    0.00000000    0.00000000
     atom   25 type  1   force =     0.00000000    0.00000000    0.00000000
     atom   26 type  1   force =     0.00000000    0.00000000    0.00000000
     atom   27 type  1   force =     0.00000000    0.00000000    0.00000000
     atom   28 type  1   force =     0.00000000    0.00000000    0.00000000
     atom   29 type  1   force =     0.00000000    0.00000000    0.00000000
     atom   30 type  1   force =     0.00000000    0.00000000    0.00000000
     atom   31 type  1   force =     0.00000000    0.00000000    0.00000000
     atom   32 type  1   force =     0.00000000    0.00000000    0.00000000
     atom   33 type  1   force =     0.00000000    0.00000000    0.00000000
     atom   34 type  1   force =     0.00000000    0.00000000    0.00000000
     atom   35 type  1   force =     0.00000000    0.00000000    0.00000000
     atom   36 type  1   force =     0.00000000    0.00000000    0.00000000
     atom   37 type  1   force =     0.00000000    0.00000000    0.00000000
     atom   38 type  1   force =     0.00000000    0.00000000    0.00000000
     atom   39 type  1   force =     0.00000000    0.00000000    0.00000000
     atom   40 type  1   force =     0.00000000    0.00000000    0.00000000
     atom   41 type  1   force =     0.00000000    0.00000000    0.00000000
     atom   42 type  1   force =     0.00000000    0.00000000    0.00000000
     atom   43 type  1   force =     0.00000000    0.00000000    0.00000000
     atom   44 type  1   force =     0.00000000    0.00000000    0.00000000
     The SCF correction term to forces
     atom    1 type  1   force =     0.00000000   -0.00000000    0.00000000
     atom    2 type  1   force =     0.00000000    0.00000000   -0.00000001
     atom    3 type  1   force =     0.00000000    0.00000000   -0.00000000
     atom    4 type  1   force =    -0.00000000   -0.00000000   -0.00000001
     atom    5 type  1   force =     0.00000000   -0.00000000   -0.00000000
     atom    6 type  1   force =     0.00000000    0.00000000    0.00000000
     atom    7 type  1   force =    -0.00000000   -0.00000000    0.00000000
     atom    8 type  1   force =    -0.00000000    0.00000000    0.00000000
     atom    9 type  1   force =     0.00000000   -0.00000000    0.00000000
     atom   10 type  1   force =    -0.00000000    0.00000000    0.00000000
     atom   11 type  1   force =     0.00000000   -0.00000000    0.00000000
     atom   12 type  1   force =    -0.00000000    0.00000000    0.00000000
     atom   13 type  1   force =     0.00000000   -0.00000000    0.00000000
     atom   14 type  1   force =    -0.00000000    0.00000000    0.00000000
     atom   15 type  1   force =    -0.00000000    0.00000000    0.00000000
     atom   16 type  1   force =    -0.00000000   -0.00000000    0.00000000
     atom   17 type  1   force =    -0.00000000   -0.00000000    0.00000000
     atom   18 type  1   force =    -0.00000000   -0.00000000    0.00000000
     atom   19 type  1   force =    -0.00000000    0.00000000    0.00000000
     atom   20 type  1   force =    -0.00000000   -0.00000000    0.00000000
     atom   21 type  1   force =    -0.00000000    0.00000000    0.00000000
     atom   22 type  1   force =    -0.00000000    0.00000000    0.00000000
     atom   23 type  1   force =    -0.00000000   -0.00000000    0.00000000
     atom   24 type  1   force =    -0.00000000    0.00000000   -0.00000001
     atom   25 type  1   force =    -0.00000000    0.00000000   -0.00000000
     atom   26 type  1   force =    -0.00000000   -0.00000000   -0.00000001
     atom   27 type  1   force =    -0.00000000   -0.00000000   -0.00000000
     atom   28 type  1   force =     0.00000000   -0.00000000    0.00000000
     atom   29 type  1   force =     0.00000000   -0.00000000    0.00000000
     atom   30 type  1   force =     0.00000000    0.00000000    0.00000000
     atom   31 type  1   force =    -0.00000000   -0.00000000    0.00000000
     atom   32 type  1   force =     0.00000000    0.00000000    0.00000000
     atom   33 type  1   force =     0.00000000   -0.00000000    0.00000000
     atom   34 type  1   force =     0.00000000    0.00000000    0.00000000
     atom   35 type  1   force =    -0.00000000   -0.00000000    0.00000000
     atom   36 type  1   force =    -0.00000000    0.00000000    0.00000000
     atom   37 type  1   force =     0.00000000    0.00000000    0.00000000
     atom   38 type  1   force =     0.00000000   -0.00000000    0.00000000
     atom   39 type  1   force =     0.00000000   -0.00000000    0.00000000
     atom   40 type  1   force =     0.00000000   -0.00000000    0.00000000
     atom   41 type  1   force =    -0.00000000    0.00000000   -0.00000000
     atom   42 type  1   force =     0.00000000   -0.00000000    0.00000000
     atom   43 type  1   force =     0.00000000    0.00000000    0.00000000
     atom   44 type  1   force =     0.00000000    0.00000000    0.00000000

     Total force =     0.007479     Total SCF correction =     0.000000

     Writing all to output data dir ./Li/Lithium.save/ :
     XML data file

     General routines

     Parallel routines

     PAW routines

     Environ routines

   This run was terminated on:   5:14:13  20Jan2025

   JOB DONE.