     Program PWSCF v.7.4 starts on  3Jan2025 at 12:11:11

     Reading input from espresso.pwi
Warning: card &CELL ignored
Warning: card    PRESS_CONV_THR   = 0.1 ignored
Warning: card    CELL_DOFREE      = 'ALL' ignored
Warning: card / ignored
Warning: card &FCP ignored
Warning: card / ignored
Warning: card &RISM ignored
Warning: card / ignored

     Current dimensions of program PWSCF are:
     Max number of different atomic species (ntypx) = 10
     Max number of k-points (npk) =  40000
     Max angular momentum in pseudopotentials (lmaxx) =  4

     IMPORTANT: XC functional enforced from input :
     Exchange-correlation= PBE
                           (   1   4   3   4   0   0   0)
     Any further DFT definition will be discarded
     Please, verify this is what you really want

     Reading input from environ.in:
     * using ionic solvent mode
     * setting boundary derivatives method to SSCS default
     * setting electrolyte-boundary derivatives method to SSCS default

Environ Warning (1001): card EOF ignored

     Found identity + (  0.0000  0.5000  0.0000) symmetry
     This is a supercell, fractional translations are disabled

     R & G space division:  proc/nbgrp/npool/nimage =     256
     Subspace diagonalization in iterative solution of the eigenvalue problem:
     a serial algorithm will be used

     Using Slab Decomposition

     bravais-lattice index     =            6
     lattice parameter (alat)  =      12.9830  a.u.
     unit-cell volume          =   16640.2915 (a.u.)^3
     number of atoms/cell      =           32
     number of atomic types    =            1
     number of electrons       =        96.00
     number of Kohn-Sham states=           72
     kinetic-energy cutoff     =      80.0000  Ry
     charge density cutoff     =     800.0000  Ry
     scf convergence threshold =      1.0E-06
     mixing beta               =       0.2000
     number of iterations used =            8  local-TF  mixing
     energy convergence thresh.=      1.0E-05
     force convergence thresh. =      3.9E-04
     Exchange-correlation= PBE
                           (   1   4   3   4   0   0   0)
     nstep                     =          999

                                  Environ Setup Summary

          O. Andreussi, I. Dabo and N. Marzari, J. Chem. Phys. 136, 064102 (2012)
          F. Nattino, M. Truscott, N. Marzari, and O. Andreussi, J. Chem. Phys. 150, 041722 (2019)

     in publications or presentations arising from this work.

     Parameters

     compensation onset threshold      =               0.1000E+00
     static permittivity               =                    89.90
     surface tension in input (dyn/cm) =                    37.30
     surface tension in internal units =               0.4792E-04

     Solvent Boundary

     solvent mode                      =                    ionic
     derivatives method                =                   lowmem
     electrolyte derivatives method    =                   lowmem
     numerical core for derivatives    =                      fft
     switching function adopted        =                     SCCS
     density limit for vacuum region   =               0.5000E-02
     density limit for bulk solvent    =               0.1000E-03
     soft-sphere radius mode           =                    bondi
     soft-sphere softness              =                     0.50
     alpha                             =                     1.32

     Electrostatic Setup

     electrostatic problem to solve    =                    modpb
     numerical solver adopted          =                   newton
     type of auxiliary density adopted =                     none
     numerical core for poisson        =                      fft
     adopting a nested solver scheme
     inner solver                      =                       cg
     inner core                        =                      fft
     type of pbc corrections           =                parabolic
     numerical core for corrections    =                      1da

     >>>>> Grand-Canonical SCF is activated <<<<<
     Initial Total Charge  =     0.000000 e
     Target Fermi Energy   =    -1.904000 eV
     Thr. of Fermi Energy  =     0.001000 eV
     Wave-shift of Kerker  =     0.400000 bohr^-1
     Wave-shift of Hartree =     1.500000 bohr^-1
     Mixing Rate of Fermi  =     0.050000

     celldm(1)=  12.983009  celldm(2)=   0.000000  celldm(3)=   7.603873
     celldm(4)=   0.000000  celldm(5)=   0.000000  celldm(6)=   0.000000

     crystal axes: (cart. coord. in units of alat)
               a(1) = (   1.000000   0.000000   0.000000 )
               a(2) = (   0.000000   1.000000   0.000000 )
               a(3) = (   0.000000   0.000000   7.603873 )

     reciprocal axes: (cart. coord. in units 2 pi/alat)
               b(1) = (  1.000000  0.000000  0.000000 )
               b(2) = (  0.000000  1.000000  0.000000 )
               b(3) = (  0.000000  0.000000  0.131512 )

     PseudoPot. # 1 for Li read from file:
     /work/e89/e89/ba3g18/Repos/Pseudopotentials/Pslibrary/Li.pbe-sl-kjpaw_psl.1.0.0.UPF
     MD5 check sum: 3f4d2cafebb47c6c3aa8ed472e6f074d
     Pseudo is Projector augmented-wave, Zval =  3.0
     Generated using 'atomic' code by A. Dal Corso  v.7.4
     Shape of augmentation charge: PSQ
     Using radial grid of 1017 points,  4 beta functions with:
                l(1) =   0
                l(2) =   0
                l(3) =   1
                l(4) =   1
     Q(r) pseudized with 0 coefficients

     atomic species   valence    mass     pseudopotential
     Li                3.00     6.94000     Li( 1.00)

      8 Sym. Ops. (no inversion) found

                                    s                        frac. trans.

      isym =  1     identity

 cryst.   s( 1) = (     1          0          0      )
                  (     0          1          0      )
                  (     0          0          1      )

 cart.    s( 1) = (  1.0000000  0.0000000  0.0000000 )
                  (  0.0000000  1.0000000  0.0000000 )
                  (  0.0000000  0.0000000  1.0000000 )

      isym =  2     180 deg rotation - cart. axis [0,0,1]

[...]

      isym =  4      90 deg rotation - cart. axis [0,0,1]

[...]

      isym =  5     inv. 180 deg rotation - cart. axis [0,1,0]

[...]

      isym =  8     inv. 180 deg rotation - cart. axis [1,-1,0]

 cryst.   s( 8) = (     0          1          0      )
                  (     1          0          0      )
                  (     0          0          1      )

 cart.    s( 8) = (  0.0000000  1.0000000  0.0000000 )
                  (  1.0000000  0.0000000  0.0000000 )
                  (  0.0000000  0.0000000  1.0000000 )

     point group C_4v (4mm)
     there are  5 classes
     the character table:

       E     2C4   C2    2s_v  2s_d
A_1    1.00  1.00  1.00  1.00  1.00
A_2    1.00  1.00  1.00 -1.00 -1.00
B_1    1.00 -1.00  1.00  1.00 -1.00
B_2    1.00 -1.00  1.00 -1.00  1.00
E      2.00  0.00 -2.00  0.00  0.00

     the symmetry operations in each class and the name of the first element:

     E        1
          identity
     2C4      3    4
           90 deg rotation - cart. axis [0,0,-1]
     C2       2
          180 deg rotation - cart. axis [0,0,1]
     2s_v     5    6
          inv. 180 deg rotation - cart. axis [0,1,0]
     2s_d     7    8
          inv. 180 deg rotation - cart. axis [1,1,0]

   Cartesian axes

     site n.     atom                  positions (alat units)
         1        Li     tau(   1) = (  -0.0000000  -0.0000000   3.1740845  )
         2        Li     tau(   2) = (   0.2500006   0.2500006   2.9127131  )
         3        Li     tau(   3) = (  -0.0000000  -0.0000000   3.6754885  )
         4        Li     tau(   4) = (   0.2500006   0.2500006   3.4245217  )
         5        Li     tau(   5) = (  -0.0000000  -0.0000000   4.1792648  )
         6        Li     tau(   6) = (   0.2500005   0.2500005   3.9281808  )
         7        Li     tau(   7) = (  -0.0000000  -0.0000000   4.6914220  )
         8        Li     tau(   8) = (   0.2499996   0.2499996   4.4298893  )
         9        Li     tau(   9) = (  -0.0000000   0.5000000   3.1740858  )
        10        Li     tau(  10) = (   0.2500006   0.7499994   2.9127131  )
        11        Li     tau(  11) = (  -0.0000000   0.5000000   3.6754846  )
        12        Li     tau(  12) = (   0.2500006   0.7499994   3.4245217  )
        13        Li     tau(  13) = (  -0.0000000   0.5000000   4.1792659  )
        14        Li     tau(  14) = (   0.2500005   0.7499995   3.9281808  )
        15        Li     tau(  15) = (  -0.0000000   0.5000000   4.6914202  )
        16        Li     tau(  16) = (   0.2499996   0.7500003   4.4298893  )
        17        Li     tau(  17) = (   0.5000000  -0.0000000   3.1740858  )
        18        Li     tau(  18) = (   0.7499994   0.2500006   2.9127131  )
        19        Li     tau(  19) = (   0.5000000  -0.0000000   3.6754846  )
        20        Li     tau(  20) = (   0.7499994   0.2500006   3.4245217  )
        21        Li     tau(  21) = (   0.5000000  -0.0000000   4.1792659  )
        22        Li     tau(  22) = (   0.7499995   0.2500005   3.9281808  )
        23        Li     tau(  23) = (   0.5000000  -0.0000000   4.6914202  )
        24        Li     tau(  24) = (   0.7500003   0.2499996   4.4298893  )
        25        Li     tau(  25) = (   0.5000000   0.5000000   3.1740886  )
        26        Li     tau(  26) = (   0.7499994   0.7499994   2.9127131  )
        27        Li     tau(  27) = (   0.5000000   0.5000000   3.6754854  )
        28        Li     tau(  28) = (   0.7499994   0.7499994   3.4245217  )
        29        Li     tau(  29) = (   0.5000000   0.5000000   4.1792690  )
        30        Li     tau(  30) = (   0.7499995   0.7499995   3.9281808  )
        31        Li     tau(  31) = (   0.5000000   0.5000000   4.6914182  )
        32        Li     tau(  32) = (   0.7500003   0.7500003   4.4298893  )

   Crystallographic axes

     site n.     atom                  positions (cryst. coord.)
         1        Li     tau(   1) = ( -0.0000000 -0.0000000  0.4174300  )
         2        Li     tau(   2) = (  0.2500006  0.2500006  0.3830565  )
         3        Li     tau(   3) = ( -0.0000000 -0.0000000  0.4833706  )
         4        Li     tau(   4) = (  0.2500006  0.2500006  0.4503654  )
         5        Li     tau(   5) = ( -0.0000000 -0.0000000  0.5496232  )
         6        Li     tau(   6) = (  0.2500005  0.2500005  0.5166026  )
         7        Li     tau(   7) = ( -0.0000000 -0.0000000  0.6169780  )
         8        Li     tau(   8) = (  0.2499996  0.2499996  0.5825833  )
         9        Li     tau(   9) = ( -0.0000000  0.5000000  0.4174301  )
        10        Li     tau(  10) = (  0.2500006  0.7499994  0.3830565  )
        11        Li     tau(  11) = ( -0.0000000  0.5000000  0.4833701  )
        12        Li     tau(  12) = (  0.2500006  0.7499994  0.4503654  )
        13        Li     tau(  13) = ( -0.0000000  0.5000000  0.5496233  )
        14        Li     tau(  14) = (  0.2500005  0.7499995  0.5166026  )
[...]
     atom   14 type  1   force =     0.00000104   -0.00000104   -0.00290062
     atom   15 type  1   force =     0.00000000    0.00000000    0.03368101
     atom   16 type  1   force =    -0.00000053    0.00000053    0.00342831
     atom   17 type  1   force =     0.00000000    0.00000000   -0.00345103
     atom   18 type  1   force =    -0.00000004    0.00000004   -0.03369892
     atom   19 type  1   force =     0.00000000    0.00000000    0.00296150
     atom   20 type  1   force =     0.00000046   -0.00000046    0.00026533
     atom   21 type  1   force =     0.00000000    0.00000000   -0.00028383
     atom   22 type  1   force =    -0.00000104    0.00000104   -0.00290062
     atom   23 type  1   force =     0.00000000    0.00000000    0.03368101
     atom   24 type  1   force =     0.00000053   -0.00000053    0.00342831
     atom   25 type  1   force =     0.00000000    0.00000000   -0.00345140
     atom   26 type  1   force =    -0.00000004   -0.00000004   -0.03369892
     atom   27 type  1   force =     0.00000000    0.00000000    0.00296082
     atom   28 type  1   force =     0.00000046    0.00000046    0.00026533
     atom   29 type  1   force =     0.00000000    0.00000000   -0.00028361
     atom   30 type  1   force =    -0.00000104   -0.00000104   -0.00290062
     atom   31 type  1   force =     0.00000000    0.00000000    0.03367977
     atom   32 type  1   force =     0.00000053    0.00000053    0.00342831
     The ionic contribution  to forces
     atom    1 type  1   force =    -0.00000001   -0.00000001   -9.85224724
     atom    2 type  1   force =     0.00000032    0.00000032  -13.49058609
     atom    3 type  1   force =    -0.00000001   -0.00000001   -1.96258659
     atom    4 type  1   force =    -0.00000703   -0.00000703   -5.93364548
     atom    5 type  1   force =    -0.00000000   -0.00000000    5.93419421
     atom    6 type  1   force =     0.00001935    0.00001935    1.96333762
     atom    7 type  1   force =    -0.00000001   -0.00000001   13.48985121
     atom    8 type  1   force =    -0.00000849   -0.00000849    9.85164641
     atom    9 type  1   force =    -0.00000001    0.00000001   -9.85222478
     atom   10 type  1   force =     0.00000032   -0.00000032  -13.49058606
     atom   11 type  1   force =    -0.00000001    0.00000001   -1.96260618
     atom   12 type  1   force =    -0.00000703    0.00000704   -5.93364550
     atom   13 type  1   force =    -0.00000000   -0.00000000    5.93426985
     atom   14 type  1   force =     0.00001935   -0.00001935    1.96333761
     atom   15 type  1   force =    -0.00000001    0.00000001   13.48984736
     atom   16 type  1   force =    -0.00000849    0.00000850    9.85164643
     atom   17 type  1   force =     0.00000001   -0.00000001   -9.85222478
     atom   18 type  1   force =    -0.00000032    0.00000032  -13.49058606
     atom   19 type  1   force =     0.00000001   -0.00000001   -1.96260618
     atom   20 type  1   force =     0.00000704   -0.00000703   -5.93364550
     atom   21 type  1   force =    -0.00000000   -0.00000000    5.93426985
     atom   22 type  1   force =    -0.00001935    0.00001935    1.96333761
     atom   23 type  1   force =     0.00000001   -0.00000001   13.48984736
     atom   24 type  1   force =     0.00000850   -0.00000849    9.85164643
     atom   25 type  1   force =     0.00000001    0.00000001   -9.85223598
     atom   26 type  1   force =    -0.00000032   -0.00000032  -13.49058605
     atom   27 type  1   force =     0.00000001    0.00000001   -1.96262331
     atom   28 type  1   force =     0.00000704    0.00000704   -5.93364550
     atom   29 type  1   force =    -0.00000000   -0.00000000    5.93421451
     atom   30 type  1   force =    -0.00001935   -0.00001935    1.96333761
     atom   31 type  1   force =     0.00000001    0.00000001   13.48985075
     atom   32 type  1   force =     0.00000850    0.00000850    9.85164645
     The local contribution  to forces
     atom    1 type  1   force =     0.00000407    0.00000407    9.72727685
     atom    2 type  1   force =     0.00000431    0.00000431   13.38063055
     atom    3 type  1   force =     0.00000407    0.00000407    1.93451990
     atom    4 type  1   force =     0.00001188    0.00001188    5.85743777
     atom    5 type  1   force =     0.00000407    0.00000407   -5.85796304
     atom    6 type  1   force =    -0.00001528   -0.00001528   -1.93528990
     atom    7 type  1   force =     0.00000349    0.00000349  -13.37984988
     atom    8 type  1   force =     0.00001312    0.00001312   -9.72661332
     atom    9 type  1   force =     0.00000407    0.00000499    9.72725476
     atom   10 type  1   force =     0.00000431    0.00000511   13.38062936
     atom   11 type  1   force =     0.00000407    0.00000441    1.93453734
     atom   12 type  1   force =     0.00001188   -0.00000249    5.85743838
     atom   13 type  1   force =     0.00000407    0.00000383   -5.85803741
     atom   14 type  1   force =    -0.00001528    0.00002410   -1.93528990
     atom   15 type  1   force =     0.00000349    0.00000442  -13.37984644
     atom   16 type  1   force =     0.00001312   -0.00000431   -9.72661392
     atom   17 type  1   force =     0.00000499    0.00000407    9.72725476
     atom   18 type  1   force =     0.00000511    0.00000431   13.38062936
     atom   19 type  1   force =     0.00000441    0.00000407    1.93453734
     atom   20 type  1   force =    -0.00000249    0.00001188    5.85743838
     atom   21 type  1   force =     0.00000383    0.00000407   -5.85803741
     atom   22 type  1   force =     0.00002410   -0.00001528   -1.93528990
     atom   23 type  1   force =     0.00000442    0.00000349  -13.37984644
     atom   24 type  1   force =    -0.00000431    0.00001312   -9.72661392
     atom   25 type  1   force =     0.00000499    0.00000499    9.72726643
     atom   26 type  1   force =     0.00000511    0.00000511   13.38062876
     atom   27 type  1   force =     0.00000441    0.00000441    1.93455527
     atom   28 type  1   force =    -0.00000249   -0.00000249    5.85743838
     atom   29 type  1   force =     0.00000383    0.00000383   -5.85798169
     atom   30 type  1   force =     0.00002410    0.00002410   -1.93528990
     atom   31 type  1   force =     0.00000442    0.00000442  -13.37984898
     atom   32 type  1   force =    -0.00000431   -0.00000431   -9.72661392
     The core correction contribution to forces
     atom    1 type  1   force =     0.00000000    0.00000000    0.00000000
     atom    2 type  1   force =     0.00000000    0.00000000    0.00000000
     atom    3 type  1   force =     0.00000000    0.00000000    0.00000000
     atom    4 type  1   force =     0.00000000    0.00000000    0.00000000
     atom    5 type  1   force =     0.00000000    0.00000000    0.00000000
     atom    6 type  1   force =     0.00000000    0.00000000    0.00000000
     atom    7 type  1   force =     0.00000000    0.00000000    0.00000000
     atom    8 type  1   force =     0.00000000    0.00000000    0.00000000
     atom    9 type  1   force =     0.00000000    0.00000000    0.00000000
     atom   10 type  1   force =     0.00000000    0.00000000    0.00000000
     atom   11 type  1   force =     0.00000000    0.00000000    0.00000000
     atom   12 type  1   force =     0.00000000    0.00000000    0.00000000
     atom   13 type  1   force =     0.00000000    0.00000000    0.00000000
     atom   14 type  1   force =     0.00000000    0.00000000    0.00000000
     atom   15 type  1   force =     0.00000000    0.00000000    0.00000000
     atom   16 type  1   force =     0.00000000    0.00000000    0.00000000
     atom   17 type  1   force =     0.00000000    0.00000000    0.00000000
     atom   18 type  1   force =     0.00000000    0.00000000    0.00000000
     atom   19 type  1   force =     0.00000000    0.00000000    0.00000000
     atom   20 type  1   force =     0.00000000    0.00000000    0.00000000
     atom   21 type  1   force =     0.00000000    0.00000000    0.00000000
     atom   22 type  1   force =     0.00000000    0.00000000    0.00000000
     atom   23 type  1   force =     0.00000000    0.00000000    0.00000000
     atom   24 type  1   force =     0.00000000    0.00000000    0.00000000
     atom   25 type  1   force =     0.00000000    0.00000000    0.00000000
     atom   26 type  1   force =     0.00000000    0.00000000    0.00000000
     atom   27 type  1   force =     0.00000000    0.00000000    0.00000000
     atom   28 type  1   force =     0.00000000    0.00000000    0.00000000
     atom   29 type  1   force =     0.00000000    0.00000000    0.00000000
     atom   30 type  1   force =     0.00000000    0.00000000    0.00000000
     atom   31 type  1   force =     0.00000000    0.00000000    0.00000000
     atom   32 type  1   force =     0.00000000    0.00000000    0.00000000
     The Hubbard contrib.    to forces
     atom    1 type  1   force =     0.00000000    0.00000000    0.00000000
     atom    2 type  1   force =     0.00000000    0.00000000    0.00000000
     atom    3 type  1   force =     0.00000000    0.00000000    0.00000000
     atom    4 type  1   force =     0.00000000    0.00000000    0.00000000
     atom    5 type  1   force =     0.00000000    0.00000000    0.00000000
     atom    6 type  1   force =     0.00000000    0.00000000    0.00000000
     atom    7 type  1   force =     0.00000000    0.00000000    0.00000000
     atom    8 type  1   force =     0.00000000    0.00000000    0.00000000
     atom    9 type  1   force =     0.00000000    0.00000000    0.00000000
     atom   10 type  1   force =     0.00000000    0.00000000    0.00000000
     atom   11 type  1   force =     0.00000000    0.00000000    0.00000000
     atom   12 type  1   force =     0.00000000    0.00000000    0.00000000
     atom   13 type  1   force =     0.00000000    0.00000000    0.00000000
     atom   14 type  1   force =     0.00000000    0.00000000    0.00000000
     atom   15 type  1   force =     0.00000000    0.00000000    0.00000000
     atom   16 type  1   force =     0.00000000    0.00000000    0.00000000
     atom   17 type  1   force =     0.00000000    0.00000000    0.00000000
     atom   18 type  1   force =     0.00000000    0.00000000    0.00000000
     atom   19 type  1   force =     0.00000000    0.00000000    0.00000000
     atom   20 type  1   force =     0.00000000    0.00000000    0.00000000
     atom   21 type  1   force =     0.00000000    0.00000000    0.00000000
     atom   22 type  1   force =     0.00000000    0.00000000    0.00000000
     atom   23 type  1   force =     0.00000000    0.00000000    0.00000000
     atom   24 type  1   force =     0.00000000    0.00000000    0.00000000
     atom   25 type  1   force =     0.00000000    0.00000000    0.00000000
     atom   26 type  1   force =     0.00000000    0.00000000    0.00000000
     atom   27 type  1   force =     0.00000000    0.00000000    0.00000000
     atom   28 type  1   force =     0.00000000    0.00000000    0.00000000
     atom   29 type  1   force =     0.00000000    0.00000000    0.00000000
     atom   30 type  1   force =     0.00000000    0.00000000    0.00000000
     atom   31 type  1   force =     0.00000000    0.00000000    0.00000000
     atom   32 type  1   force =     0.00000000    0.00000000    0.00000000
     The SCF correction term to forces
     atom    1 type  1   force =     0.00000000    0.00000000    0.00000065
     atom    2 type  1   force =    -0.00000000   -0.00000000    0.00000066
     atom    3 type  1   force =    -0.00000000    0.00000000    0.00000021
     atom    4 type  1   force =    -0.00000001   -0.00000001    0.00000053
     atom    5 type  1   force =     0.00000000    0.00000000    0.00000019
     atom    6 type  1   force =     0.00000001    0.00000001    0.00000035
     atom    7 type  1   force =    -0.00000000   -0.00000000   -0.00000061
     atom    8 type  1   force =    -0.00000000   -0.00000000    0.00000015
     atom    9 type  1   force =     0.00000000   -0.00000000    0.00000065
     atom   10 type  1   force =    -0.00000000    0.00000000    0.00000066
     atom   11 type  1   force =     0.00000000    0.00000000    0.00000021
     atom   12 type  1   force =    -0.00000001    0.00000001    0.00000053
     atom   13 type  1   force =    -0.00000000   -0.00000000    0.00000019
     atom   14 type  1   force =     0.00000001   -0.00000001    0.00000035
     atom   15 type  1   force =    -0.00000000    0.00000000   -0.00000059
     atom   16 type  1   force =    -0.00000000    0.00000000    0.00000015
     atom   17 type  1   force =    -0.00000000    0.00000000    0.00000065
     atom   18 type  1   force =     0.00000000   -0.00000000    0.00000066
     atom   19 type  1   force =    -0.00000000    0.00000000    0.00000021
     atom   20 type  1   force =     0.00000001   -0.00000001    0.00000053
     atom   21 type  1   force =    -0.00000000   -0.00000000    0.00000019
     atom   22 type  1   force =    -0.00000001    0.00000001    0.00000035
     atom   23 type  1   force =    -0.00000000    0.00000000   -0.00000059
     atom   24 type  1   force =     0.00000000   -0.00000000    0.00000015
     atom   25 type  1   force =    -0.00000000   -0.00000000    0.00000066
     atom   26 type  1   force =     0.00000000    0.00000000    0.00000066
     atom   27 type  1   force =    -0.00000000   -0.00000000    0.00000023
     atom   28 type  1   force =     0.00000001    0.00000001    0.00000053
     atom   29 type  1   force =    -0.00000000    0.00000000    0.00000017
     atom   30 type  1   force =    -0.00000001   -0.00000001    0.00000035
     atom   31 type  1   force =     0.00000000    0.00000000   -0.00000057
     atom   32 type  1   force =     0.00000000    0.00000000    0.00000015

     Total force =     0.000750     Total SCF correction =     0.000003
     Energy error            =      5.9E-07 Ry
     Gradient error          =      2.5E-04 Ry/Bohr

     bfgs converged in   9 scf cycles and   8 bfgs steps
     (criteria: energy <  1.0E-05 Ry, force <  3.9E-04 Ry/Bohr)

     End of BFGS Geometry Optimization

     Final energy             =    -481.3161111879 Ry

     File ./Li/Lithium.bfgs deleted, as requested
Begin final coordinates

ATOMIC_POSITIONS (angstrom)
Li              -0.0000000700       -0.0000000700       21.8130964303
Li               1.7175789337        1.7175789337       20.0141152698
Li              -0.0000000700       -0.0000000700       25.2625392734
Li               1.7175774298        1.7175774298       23.5179589395
Li              -0.0000000700       -0.0000000700       28.7230602651
Li               1.7175742641        1.7175742641       26.9768498143
Li              -0.0000000600       -0.0000000600       32.2283166005
Li               1.7175791335        1.7175791335       30.4284736072
Li              -0.0000000700        3.4351561600       21.8131133320
Li               1.7175789337        5.1527333963       20.0141152898
Li              -0.0000000700        3.4351561700       25.2625125488
Li               1.7175774298        5.1527349002       23.5179589295
Li              -0.0000000700        3.4351561800       28.7231197740
Li               1.7175742641        5.1527380759       26.9768498143
Li              -0.0000000600        3.4351561700       32.2283013273
Li               1.7175791335        5.1527332065       30.4284736172
Li               3.4351561600       -0.0000000700       21.8131133320
Li               5.1527333963        1.7175789337       20.0141152898
Li               3.4351561700       -0.0000000700       25.2625125488
Li               5.1527349002        1.7175774298       23.5179589295
Li               3.4351561800       -0.0000000700       28.7231197740
Li               5.1527380759        1.7175742641       26.9768498143
Li               3.4351561700       -0.0000000600       32.2283013273
Li               5.1527332065        1.7175791335       30.4284736172
Li               3.4351561600        3.4351561600       21.8131077887
Li               5.1527333963        5.1527333963       20.0141152998
Li               3.4351561700        3.4351561700       25.2624984316
Li               5.1527349002        5.1527349002       23.5179589295
Li               3.4351561800        3.4351561800       28.7230935328
Li               5.1527380759        5.1527380759       26.9768498143
Li               3.4351561700        3.4351561700       32.2283051662
Li               5.1527332065        5.1527332065       30.4284736172
End final coordinates

     Writing all to output data dir ./Li/Lithium.save/ :
     XML data file

     General routines

     Parallel routines

     PAW routines

     Environ routines

   This run was terminated on:  13:13:53   3Jan2025

   JOB DONE.