     Program PWSCF v.7.4 starts on  2Jan2025 at 21: 5: 3

     Reading input from espresso.pwi
Warning: card &CELL ignored
Warning: card    PRESS_CONV_THR   = 0.1 ignored
Warning: card    CELL_DOFREE      = 'ALL' ignored
Warning: card / ignored
Warning: card &FCP ignored
Warning: card / ignored
Warning: card &RISM ignored
Warning: card / ignored

     Current dimensions of program PWSCF are:
     Max number of different atomic species (ntypx) = 10
     Max number of k-points (npk) =  40000
     Max angular momentum in pseudopotentials (lmaxx) =  4

     IMPORTANT: XC functional enforced from input :
     Exchange-correlation= PBE
                           (   1   4   3   4   0   0   0)
     Any further DFT definition will be discarded
     Please, verify this is what you really want

     Reading input from environ.in:
     * using ionic solvent mode
     * setting boundary derivatives method to SSCS default
     * setting electrolyte-boundary derivatives method to SSCS default

Environ Warning (1001): card EOF ignored

     Found identity + (  0.0000  0.5000  0.0000) symmetry
     This is a supercell, fractional translations are disabled

     R & G space division:  proc/nbgrp/npool/nimage =     256
     Subspace diagonalization in iterative solution of the eigenvalue problem:
     a serial algorithm will be used

     Using Slab Decomposition

     bravais-lattice index     =            6
     lattice parameter (alat)  =      12.9830  a.u.
     unit-cell volume          =   16640.2915 (a.u.)^3
     number of atoms/cell      =           32
     number of atomic types    =            1
     number of electrons       =        96.00
     number of Kohn-Sham states=           72
     kinetic-energy cutoff     =      80.0000  Ry
     charge density cutoff     =     800.0000  Ry
     scf convergence threshold =      1.0E-06
     mixing beta               =       0.2000
     number of iterations used =            8  local-TF  mixing
     energy convergence thresh.=      1.0E-05
     force convergence thresh. =      3.9E-04
     Exchange-correlation= PBE
                           (   1   4   3   4   0   0   0)
     nstep                     =          999

                                  Environ Setup Summary

          O. Andreussi, I. Dabo and N. Marzari, J. Chem. Phys. 136, 064102 (2012)
          F. Nattino, M. Truscott, N. Marzari, and O. Andreussi, J. Chem. Phys. 150, 041722 (2019)

     in publications or presentations arising from this work.

     Parameters

     compensation onset threshold      =               0.1000E+00
     static permittivity               =                    89.90
     surface tension in input (dyn/cm) =                    37.30
     surface tension in internal units =               0.4792E-04

     Solvent Boundary

     solvent mode                      =                    ionic
     derivatives method                =                   lowmem
     electrolyte derivatives method    =                   lowmem
     numerical core for derivatives    =                      fft
     switching function adopted        =                     SCCS
     density limit for vacuum region   =               0.5000E-02
     density limit for bulk solvent    =               0.1000E-03
     soft-sphere radius mode           =                    bondi
     soft-sphere softness              =                     0.50
     alpha                             =                     1.32

     Electrostatic Setup

     electrostatic problem to solve    =                    modpb
     numerical solver adopted          =                   newton
     type of auxiliary density adopted =                     none
     numerical core for poisson        =                      fft
     adopting a nested solver scheme
     inner solver                      =                       cg
     inner core                        =                      fft
     type of pbc corrections           =                parabolic
     numerical core for corrections    =                      1da

     >>>>> Grand-Canonical SCF is activated <<<<<
     Initial Total Charge  =     0.000000 e
     Target Fermi Energy   =    -2.404000 eV
     Thr. of Fermi Energy  =     0.001000 eV
     Wave-shift of Kerker  =     0.400000 bohr^-1
     Wave-shift of Hartree =     1.500000 bohr^-1
     Mixing Rate of Fermi  =     0.050000

     celldm(1)=  12.983009  celldm(2)=   0.000000  celldm(3)=   7.603873
     celldm(4)=   0.000000  celldm(5)=   0.000000  celldm(6)=   0.000000

     crystal axes: (cart. coord. in units of alat)
               a(1) = (   1.000000   0.000000   0.000000 )
               a(2) = (   0.000000   1.000000   0.000000 )
               a(3) = (   0.000000   0.000000   7.603873 )

     reciprocal axes: (cart. coord. in units 2 pi/alat)
               b(1) = (  1.000000  0.000000  0.000000 )
               b(2) = (  0.000000  1.000000  0.000000 )
               b(3) = (  0.000000  0.000000  0.131512 )

     PseudoPot. # 1 for Li read from file:
     /work/e89/e89/ba3g18/Repos/Pseudopotentials/Pslibrary/Li.pbe-sl-kjpaw_psl.1.0.0.UPF
     MD5 check sum: 3f4d2cafebb47c6c3aa8ed472e6f074d
     Pseudo is Projector augmented-wave, Zval =  3.0
     Generated using 'atomic' code by A. Dal Corso  v.7.4
     Shape of augmentation charge: PSQ
     Using radial grid of 1017 points,  4 beta functions with:
                l(1) =   0
                l(2) =   0
                l(3) =   1
                l(4) =   1
     Q(r) pseudized with 0 coefficients

     atomic species   valence    mass     pseudopotential
     Li                3.00     6.94000     Li( 1.00)

      8 Sym. Ops. (no inversion) found

                                    s                        frac. trans.

      isym =  1     identity

 cryst.   s( 1) = (     1          0          0      )
                  (     0          1          0      )
                  (     0          0          1      )

 cart.    s( 1) = (  1.0000000  0.0000000  0.0000000 )
                  (  0.0000000  1.0000000  0.0000000 )
                  (  0.0000000  0.0000000  1.0000000 )

      isym =  2     180 deg rotation - cart. axis [0,0,1]

[...]

      isym =  4      90 deg rotation - cart. axis [0,0,1]

[...]

      isym =  5     inv. 180 deg rotation - cart. axis [0,1,0]

[...]

      isym =  8     inv. 180 deg rotation - cart. axis [1,-1,0]

 cryst.   s( 8) = (     0          1          0      )
                  (     1          0          0      )
                  (     0          0          1      )

 cart.    s( 8) = (  0.0000000  1.0000000  0.0000000 )
                  (  1.0000000  0.0000000  0.0000000 )
                  (  0.0000000  0.0000000  1.0000000 )

     point group C_4v (4mm)
     there are  5 classes
     the character table:

       E     2C4   C2    2s_v  2s_d
A_1    1.00  1.00  1.00  1.00  1.00
A_2    1.00  1.00  1.00 -1.00 -1.00
B_1    1.00 -1.00  1.00  1.00 -1.00
B_2    1.00 -1.00  1.00 -1.00  1.00
E      2.00  0.00 -2.00  0.00  0.00

     the symmetry operations in each class and the name of the first element:

     E        1
          identity
     2C4      3    4
           90 deg rotation - cart. axis [0,0,-1]
     C2       2
          180 deg rotation - cart. axis [0,0,1]
     2s_v     5    6
          inv. 180 deg rotation - cart. axis [0,1,0]
     2s_d     7    8
          inv. 180 deg rotation - cart. axis [1,1,0]

   Cartesian axes

     site n.     atom                  positions (alat units)
         1        Li     tau(   1) = (  -0.0000000  -0.0000000   3.1775890  )
         2        Li     tau(   2) = (   0.2500007   0.2500007   2.9100037  )
         3        Li     tau(   3) = (  -0.0000000  -0.0000000   3.6735741  )
         4        Li     tau(   4) = (   0.2499971   0.2499971   3.4240120  )
         5        Li     tau(   5) = (  -0.0000000  -0.0000000   4.1797639  )
         6        Li     tau(   6) = (   0.2500013   0.2500013   3.9301063  )
         7        Li     tau(   7) = (  -0.0000000  -0.0000000   4.6941031  )
         8        Li     tau(   8) = (   0.2499985   0.2499985   4.4264072  )
         9        Li     tau(   9) = (  -0.0000000   0.5000000   3.1775890  )
        10        Li     tau(  10) = (   0.2500007   0.7499993   2.9100037  )
        11        Li     tau(  11) = (  -0.0000000   0.5000000   3.6735778  )
        12        Li     tau(  12) = (   0.2499971   0.7500029   3.4240120  )
        13        Li     tau(  13) = (  -0.0000000   0.5000000   4.1797660  )
        14        Li     tau(  14) = (   0.2500013   0.7499986   3.9301063  )
        15        Li     tau(  15) = (  -0.0000000   0.5000000   4.6941026  )
        16        Li     tau(  16) = (   0.2499985   0.7500015   4.4264072  )
        17        Li     tau(  17) = (   0.5000000  -0.0000000   3.1775890  )
        18        Li     tau(  18) = (   0.7499993   0.2500007   2.9100037  )
        19        Li     tau(  19) = (   0.5000000  -0.0000000   3.6735778  )
        20        Li     tau(  20) = (   0.7500029   0.2499971   3.4240120  )
        21        Li     tau(  21) = (   0.5000000  -0.0000000   4.1797660  )
        22        Li     tau(  22) = (   0.7499986   0.2500013   3.9301063  )
        23        Li     tau(  23) = (   0.5000000  -0.0000000   4.6941026  )
        24        Li     tau(  24) = (   0.7500015   0.2499985   4.4264072  )
        25        Li     tau(  25) = (   0.5000000   0.5000000   3.1775857  )
        26        Li     tau(  26) = (   0.7499993   0.7499993   2.9100037  )
        27        Li     tau(  27) = (   0.5000000   0.5000000   3.6735788  )
        28        Li     tau(  28) = (   0.7500029   0.7500029   3.4240120  )
        29        Li     tau(  29) = (   0.5000000   0.5000000   4.1797695  )
        30        Li     tau(  30) = (   0.7499986   0.7499986   3.9301063  )
        31        Li     tau(  31) = (   0.5000000   0.5000000   4.6941016  )
        32        Li     tau(  32) = (   0.7500015   0.7500015   4.4264072  )

   Crystallographic axes

     site n.     atom                  positions (cryst. coord.)
         1        Li     tau(   1) = ( -0.0000000 -0.0000000  0.4178909  )
         2        Li     tau(   2) = (  0.2500007  0.2500007  0.3827002  )
         3        Li     tau(   3) = ( -0.0000000 -0.0000000  0.4831188  )
         4        Li     tau(   4) = (  0.2499971  0.2499971  0.4502984  )
         5        Li     tau(   5) = ( -0.0000000 -0.0000000  0.5496888  )
         6        Li     tau(   6) = (  0.2500013  0.2500013  0.5168559  )
         7        Li     tau(   7) = ( -0.0000000 -0.0000000  0.6173306  )
         8        Li     tau(   8) = (  0.2499985  0.2499985  0.5821253  )
         9        Li     tau(   9) = ( -0.0000000  0.5000000  0.4178909  )
        10        Li     tau(  10) = (  0.2500007  0.7499993  0.3827002  )
        11        Li     tau(  11) = ( -0.0000000  0.5000000  0.4831193  )
        12        Li     tau(  12) = (  0.2499971  0.7500029  0.4502984  )
        13        Li     tau(  13) = ( -0.0000000  0.5000000  0.5496891  )
        14        Li     tau(  14) = (  0.2500013  0.7499986  0.5168559  )
[...]
     atom   14 type  1   force =     0.00000021   -0.00000021   -0.00058820
     atom   15 type  1   force =     0.00000000    0.00000000    0.04778016
     atom   16 type  1   force =    -0.00000041    0.00000041    0.00326505
     atom   17 type  1   force =     0.00000000    0.00000000   -0.00328381
     atom   18 type  1   force =     0.00000001   -0.00000001   -0.04781653
     atom   19 type  1   force =     0.00000000    0.00000000    0.00062586
     atom   20 type  1   force =     0.00000084   -0.00000084    0.00039886
     atom   21 type  1   force =     0.00000000    0.00000000   -0.00037669
     atom   22 type  1   force =    -0.00000021    0.00000021   -0.00058820
     atom   23 type  1   force =     0.00000000    0.00000000    0.04778016
     atom   24 type  1   force =     0.00000041   -0.00000041    0.00326505
     atom   25 type  1   force =     0.00000000    0.00000000   -0.00328393
     atom   26 type  1   force =     0.00000001    0.00000001   -0.04781653
     atom   27 type  1   force =     0.00000000    0.00000000    0.00062683
     atom   28 type  1   force =     0.00000084    0.00000084    0.00039886
     atom   29 type  1   force =     0.00000000    0.00000000   -0.00037672
     atom   30 type  1   force =    -0.00000021   -0.00000021   -0.00058820
     atom   31 type  1   force =     0.00000000    0.00000000    0.04778033
     atom   32 type  1   force =     0.00000041    0.00000041    0.00326505
     The ionic contribution  to forces
     atom    1 type  1   force =    -0.00000001   -0.00000001   -9.85714479
     atom    2 type  1   force =    -0.00000282   -0.00000282  -13.48625802
     atom    3 type  1   force =    -0.00000001   -0.00000001   -1.97506169
     atom    4 type  1   force =    -0.00001747   -0.00001747   -5.92332705
     atom    5 type  1   force =    -0.00000000   -0.00000000    5.92370501
     atom    6 type  1   force =     0.00000127    0.00000127    1.97602923
     atom    7 type  1   force =    -0.00000001   -0.00000001   13.48532608
     atom    8 type  1   force =    -0.00000571   -0.00000571    9.85673516
     atom    9 type  1   force =    -0.00000001    0.00000001   -9.85713917
     atom   10 type  1   force =    -0.00000282    0.00000282  -13.48625800
     atom   11 type  1   force =    -0.00000001    0.00000001   -1.97509600
     atom   12 type  1   force =    -0.00001747    0.00001748   -5.92332707
     atom   13 type  1   force =    -0.00000000   -0.00000000    5.92371509
     atom   14 type  1   force =     0.00000127   -0.00000127    1.97602923
     atom   15 type  1   force =    -0.00000001    0.00000001   13.48531451
     atom   16 type  1   force =    -0.00000571    0.00000572    9.85673519
     atom   17 type  1   force =     0.00000001   -0.00000001   -9.85713917
     atom   18 type  1   force =     0.00000282   -0.00000282  -13.48625800
     atom   19 type  1   force =     0.00000001   -0.00000001   -1.97509600
     atom   20 type  1   force =     0.00001748   -0.00001747   -5.92332707
     atom   21 type  1   force =    -0.00000000   -0.00000000    5.92371509
     atom   22 type  1   force =    -0.00000127    0.00000127    1.97602923
     atom   23 type  1   force =     0.00000001   -0.00000001   13.48531451
     atom   24 type  1   force =     0.00000572   -0.00000571    9.85673519
     atom   25 type  1   force =     0.00000001    0.00000001   -9.85711215
     atom   26 type  1   force =     0.00000282    0.00000282  -13.48625798
     atom   27 type  1   force =     0.00000001    0.00000001   -1.97507490
     atom   28 type  1   force =     0.00001748    0.00001748   -5.92332707
     atom   29 type  1   force =    -0.00000000   -0.00000000    5.92375233
     atom   30 type  1   force =    -0.00000127   -0.00000127    1.97602922
     atom   31 type  1   force =     0.00000001    0.00000001   13.48530384
     atom   32 type  1   force =     0.00000572    0.00000572    9.85673520
     The local contribution  to forces
     atom    1 type  1   force =     0.00000407    0.00000407    9.80714537
     atom    2 type  1   force =     0.00000713    0.00000713   13.48472555
     atom    3 type  1   force =     0.00000407    0.00000407    1.96407156
     atom    4 type  1   force =     0.00002244    0.00002244    5.89164507
     atom    5 type  1   force =     0.00000407    0.00000407   -5.89206498
     atom    6 type  1   force =     0.00000307    0.00000307   -1.96508110
     atom    7 type  1   force =     0.00000350    0.00000350  -13.48381638
     atom    8 type  1   force =     0.00001041    0.00001041   -9.80675077
     atom    9 type  1   force =     0.00000407    0.00000499    9.80714049
     atom   10 type  1   force =     0.00000713    0.00000229   13.48472435
     atom   11 type  1   force =     0.00000407    0.00000441    1.96410605
     atom   12 type  1   force =     0.00002244   -0.00001304    5.89164567
     atom   13 type  1   force =     0.00000407    0.00000383   -5.89207428
     atom   14 type  1   force =     0.00000307    0.00000575   -1.96508110
     atom   15 type  1   force =     0.00000350    0.00000442  -13.48380338
     atom   16 type  1   force =     0.00001041   -0.00000160   -9.80675138
     atom   17 type  1   force =     0.00000499    0.00000407    9.80714049
     atom   18 type  1   force =     0.00000229    0.00000713   13.48472435
     atom   19 type  1   force =     0.00000441    0.00000407    1.96410605
     atom   20 type  1   force =    -0.00001304    0.00002244    5.89164567
     atom   21 type  1   force =     0.00000383    0.00000407   -5.89207428
     atom   22 type  1   force =     0.00000575    0.00000307   -1.96508110
     atom   23 type  1   force =     0.00000442    0.00000350  -13.48380338
     atom   24 type  1   force =    -0.00000160    0.00001041   -9.80675138
     atom   25 type  1   force =     0.00000499    0.00000499    9.80711316
     atom   26 type  1   force =     0.00000229    0.00000229   13.48472375
     atom   27 type  1   force =     0.00000441    0.00000441    1.96408387
     atom   28 type  1   force =    -0.00001304   -0.00001304    5.89164567
     atom   29 type  1   force =     0.00000383    0.00000383   -5.89211192
     atom   30 type  1   force =     0.00000575    0.00000575   -1.96508110
     atom   31 type  1   force =     0.00000442    0.00000442  -13.48379162
     atom   32 type  1   force =    -0.00000160   -0.00000160   -9.80675138
     The core correction contribution to forces
     atom    1 type  1   force =     0.00000000    0.00000000    0.00000000
     atom    2 type  1   force =     0.00000000    0.00000000    0.00000000
     atom    3 type  1   force =     0.00000000    0.00000000    0.00000000
     atom    4 type  1   force =     0.00000000    0.00000000    0.00000000
     atom    5 type  1   force =     0.00000000    0.00000000    0.00000000
     atom    6 type  1   force =     0.00000000    0.00000000    0.00000000
     atom    7 type  1   force =     0.00000000    0.00000000    0.00000000
     atom    8 type  1   force =     0.00000000    0.00000000    0.00000000
     atom    9 type  1   force =     0.00000000    0.00000000    0.00000000
     atom   10 type  1   force =     0.00000000    0.00000000    0.00000000
     atom   11 type  1   force =     0.00000000    0.00000000    0.00000000
     atom   12 type  1   force =     0.00000000    0.00000000    0.00000000
     atom   13 type  1   force =     0.00000000    0.00000000    0.00000000
     atom   14 type  1   force =     0.00000000    0.00000000    0.00000000
     atom   15 type  1   force =     0.00000000    0.00000000    0.00000000
     atom   16 type  1   force =     0.00000000    0.00000000    0.00000000
     atom   17 type  1   force =     0.00000000    0.00000000    0.00000000
     atom   18 type  1   force =     0.00000000    0.00000000    0.00000000
     atom   19 type  1   force =     0.00000000    0.00000000    0.00000000
     atom   20 type  1   force =     0.00000000    0.00000000    0.00000000
     atom   21 type  1   force =     0.00000000    0.00000000    0.00000000
     atom   22 type  1   force =     0.00000000    0.00000000    0.00000000
     atom   23 type  1   force =     0.00000000    0.00000000    0.00000000
     atom   24 type  1   force =     0.00000000    0.00000000    0.00000000
     atom   25 type  1   force =     0.00000000    0.00000000    0.00000000
     atom   26 type  1   force =     0.00000000    0.00000000    0.00000000
     atom   27 type  1   force =     0.00000000    0.00000000    0.00000000
     atom   28 type  1   force =     0.00000000    0.00000000    0.00000000
     atom   29 type  1   force =     0.00000000    0.00000000    0.00000000
     atom   30 type  1   force =     0.00000000    0.00000000    0.00000000
     atom   31 type  1   force =     0.00000000    0.00000000    0.00000000
     atom   32 type  1   force =     0.00000000    0.00000000    0.00000000
     The Hubbard contrib.    to forces
     atom    1 type  1   force =     0.00000000    0.00000000    0.00000000
     atom    2 type  1   force =     0.00000000    0.00000000    0.00000000
     atom    3 type  1   force =     0.00000000    0.00000000    0.00000000
     atom    4 type  1   force =     0.00000000    0.00000000    0.00000000
     atom    5 type  1   force =     0.00000000    0.00000000    0.00000000
     atom    6 type  1   force =     0.00000000    0.00000000    0.00000000
     atom    7 type  1   force =     0.00000000    0.00000000    0.00000000
     atom    8 type  1   force =     0.00000000    0.00000000    0.00000000
     atom    9 type  1   force =     0.00000000    0.00000000    0.00000000
     atom   10 type  1   force =     0.00000000    0.00000000    0.00000000
     atom   11 type  1   force =     0.00000000    0.00000000    0.00000000
     atom   12 type  1   force =     0.00000000    0.00000000    0.00000000
     atom   13 type  1   force =     0.00000000    0.00000000    0.00000000
     atom   14 type  1   force =     0.00000000    0.00000000    0.00000000
     atom   15 type  1   force =     0.00000000    0.00000000    0.00000000
     atom   16 type  1   force =     0.00000000    0.00000000    0.00000000
     atom   17 type  1   force =     0.00000000    0.00000000    0.00000000
     atom   18 type  1   force =     0.00000000    0.00000000    0.00000000
     atom   19 type  1   force =     0.00000000    0.00000000    0.00000000
     atom   20 type  1   force =     0.00000000    0.00000000    0.00000000
     atom   21 type  1   force =     0.00000000    0.00000000    0.00000000
     atom   22 type  1   force =     0.00000000    0.00000000    0.00000000
     atom   23 type  1   force =     0.00000000    0.00000000    0.00000000
     atom   24 type  1   force =     0.00000000    0.00000000    0.00000000
     atom   25 type  1   force =     0.00000000    0.00000000    0.00000000
     atom   26 type  1   force =     0.00000000    0.00000000    0.00000000
     atom   27 type  1   force =     0.00000000    0.00000000    0.00000000
     atom   28 type  1   force =     0.00000000    0.00000000    0.00000000
     atom   29 type  1   force =     0.00000000    0.00000000    0.00000000
     atom   30 type  1   force =     0.00000000    0.00000000    0.00000000
     atom   31 type  1   force =     0.00000000    0.00000000    0.00000000
     atom   32 type  1   force =     0.00000000    0.00000000    0.00000000
     The SCF correction term to forces
     atom    1 type  1   force =     0.00000000    0.00000000    0.00000002
     atom    2 type  1   force =     0.00000000    0.00000000    0.00000314
     atom    3 type  1   force =     0.00000000    0.00000000   -0.00000004
     atom    4 type  1   force =    -0.00000000   -0.00000000    0.00000017
     atom    5 type  1   force =     0.00000000    0.00000000    0.00000002
     atom    6 type  1   force =    -0.00000000   -0.00000000    0.00000023
     atom    7 type  1   force =     0.00000000    0.00000000   -0.00000343
     atom    8 type  1   force =    -0.00000000   -0.00000000    0.00000002
     atom    9 type  1   force =     0.00000000   -0.00000000    0.00000003
     atom   10 type  1   force =     0.00000000   -0.00000000    0.00000314
     atom   11 type  1   force =     0.00000000   -0.00000000   -0.00000004
     atom   12 type  1   force =    -0.00000000    0.00000000    0.00000017
     atom   13 type  1   force =     0.00000000    0.00000000    0.00000002
     atom   14 type  1   force =    -0.00000000    0.00000000    0.00000023
     atom   15 type  1   force =     0.00000000   -0.00000000   -0.00000345
     atom   16 type  1   force =    -0.00000000    0.00000000    0.00000002
     atom   17 type  1   force =    -0.00000000    0.00000000    0.00000003
     atom   18 type  1   force =    -0.00000000    0.00000000    0.00000314
     atom   19 type  1   force =    -0.00000000    0.00000000   -0.00000004
     atom   20 type  1   force =     0.00000000   -0.00000000    0.00000017
     atom   21 type  1   force =    -0.00000000    0.00000000    0.00000002
     atom   22 type  1   force =     0.00000000   -0.00000000    0.00000023
     atom   23 type  1   force =    -0.00000000    0.00000000   -0.00000345
     atom   24 type  1   force =     0.00000000   -0.00000000    0.00000002
     atom   25 type  1   force =    -0.00000000   -0.00000000    0.00000004
     atom   26 type  1   force =    -0.00000000   -0.00000000    0.00000314
     atom   27 type  1   force =    -0.00000000   -0.00000000   -0.00000003
     atom   28 type  1   force =     0.00000000    0.00000000    0.00000017
     atom   29 type  1   force =    -0.00000000   -0.00000000    0.00000004
     atom   30 type  1   force =     0.00000000    0.00000000    0.00000023
     atom   31 type  1   force =    -0.00000000    0.00000000   -0.00000349
     atom   32 type  1   force =     0.00000000    0.00000000    0.00000002

     Total force =     0.000891     Total SCF correction =     0.000009
     Energy error            =      8.3E-07 Ry
     Gradient error          =      2.8E-04 Ry/Bohr

     bfgs converged in  10 scf cycles and   9 bfgs steps
     (criteria: energy <  1.0E-05 Ry, force <  3.9E-04 Ry/Bohr)

     End of BFGS Geometry Optimization

     Final energy             =    -481.2199601594 Ry

     File ./Li/Lithium.bfgs deleted, as requested
Begin final coordinates

ATOMIC_POSITIONS (angstrom)
Li              -0.0000000700       -0.0000000700       21.8069524611
Li               1.7175822883        1.7175822883       20.0112493216
Li              -0.0000000700       -0.0000000700       25.2517543955
Li               1.7175822530        1.7175822530       23.5275340421
Li              -0.0000000700       -0.0000000700       28.7128555010
Li               1.7175816857        1.7175816857       26.9878299431
Li              -0.0000000600       -0.0000000600       32.2315353949
Li               1.7175755926        1.7175755926       30.4347235465
Li              -0.0000000700        3.4351561600       21.8069614111
Li               1.7175822883        5.1527300417       20.0112493416
Li              -0.0000000700        3.4351561700       25.2517274754
Li               1.7175822530        5.1527300770       23.5275340321
Li              -0.0000000700        3.4351561800       28.7128629752
Li               1.7175816857        5.1527306543       26.9878299431
Li              -0.0000000600        3.4351561700       32.2315228849
Li               1.7175755926        5.1527367474       30.4347235565
Li               3.4351561600       -0.0000000700       21.8069614111
Li               5.1527300417        1.7175822883       20.0112493416
Li               3.4351561700       -0.0000000700       25.2517274754
Li               5.1527300770        1.7175822530       23.5275340321
Li               3.4351561800       -0.0000000700       28.7128629752
Li               5.1527306543        1.7175816857       26.9878299431
Li               3.4351561700       -0.0000000600       32.2315228849
Li               5.1527367474        1.7175755926       30.4347235565
Li               3.4351561600        3.4351561600       21.8069805168
Li               5.1527300417        5.1527300417       20.0112493516
Li               3.4351561700        3.4351561700       25.2517332548
Li               5.1527300770        5.1527300770       23.5275340321
Li               3.4351561800        3.4351561800       28.7128843413
Li               5.1527306543        5.1527306543       26.9878299431
Li               3.4351561700        3.4351561700       32.2315092042
Li               5.1527367474        5.1527367474       30.4347235565
End final coordinates

     Writing all to output data dir ./Li/Lithium.save/ :
     XML data file

     General routines

     Parallel routines

     PAW routines

     Environ routines

   This run was terminated on:  22:23:10   2Jan2025

   JOB DONE.