     Program PWSCF v.7.4 starts on  3Jan2025 at 11:41: 9

     Reading input from espresso.pwi
Warning: card &CELL ignored
Warning: card    PRESS_CONV_THR   = 0.1 ignored
Warning: card    CELL_DOFREE      = 'ALL' ignored
Warning: card / ignored
Warning: card &FCP ignored
Warning: card / ignored
Warning: card &RISM ignored
Warning: card / ignored

     Current dimensions of program PWSCF are:
     Max number of different atomic species (ntypx) = 10
     Max number of k-points (npk) =  40000
     Max angular momentum in pseudopotentials (lmaxx) =  4

     IMPORTANT: XC functional enforced from input :
     Exchange-correlation= PBE
                           (   1   4   3   4   0   0   0)
     Any further DFT definition will be discarded
     Please, verify this is what you really want

     Reading input from environ.in:
     * using ionic solvent mode
     * setting boundary derivatives method to SSCS default
     * setting electrolyte-boundary derivatives method to SSCS default

Environ Warning (1001): card EOF ignored

     Found identity + (  0.5000  0.0000  0.0000) symmetry
     This is a supercell, fractional translations are disabled

     K-points division:     npool     =       2
     R & G space division:  proc/nbgrp/npool/nimage =     256
     Subspace diagonalization in iterative solution of the eigenvalue problem:
     one sub-group per band group will be used

     Using Slab Decomposition

     bravais-lattice index     =           12
     lattice parameter (alat)  =      18.3607  a.u.
     unit-cell volume          =   37876.5244 (a.u.)^3
     number of atoms/cell      =           76
     number of atomic types    =            1
     number of electrons       =       228.00
     number of Kohn-Sham states=          171
     kinetic-energy cutoff     =      80.0000  Ry
     charge density cutoff     =     800.0000  Ry
     scf convergence threshold =      1.0E-06
     mixing beta               =       0.2000
     number of iterations used =            8  local-TF  mixing
     energy convergence thresh.=      1.0E-05
     force convergence thresh. =      3.9E-04
     Exchange-correlation= PBE
                           (   1   4   3   4   0   0   0)
     nstep                     =          999

                                  Environ Setup Summary

          O. Andreussi, I. Dabo and N. Marzari, J. Chem. Phys. 136, 064102 (2012)
          F. Nattino, M. Truscott, N. Marzari, and O. Andreussi, J. Chem. Phys. 150, 041722 (2019)

     in publications or presentations arising from this work.

     Parameters

     compensation onset threshold      =               0.1000E+00
     static permittivity               =                    89.90
     surface tension in input (dyn/cm) =                    37.30
     surface tension in internal units =               0.4792E-04

     Solvent Boundary

     solvent mode                      =                    ionic
     derivatives method                =                   lowmem
     electrolyte derivatives method    =                   lowmem
     numerical core for derivatives    =                      fft
     switching function adopted        =                     SCCS
     density limit for vacuum region   =               0.5000E-02
     density limit for bulk solvent    =               0.1000E-03
     soft-sphere radius mode           =                    bondi
     soft-sphere softness              =                     0.50
     alpha                             =                     1.32

     Electrostatic Setup

     electrostatic problem to solve    =                    modpb
     numerical solver adopted          =                   newton
     type of auxiliary density adopted =                     none
     numerical core for poisson        =                      fft
     adopting a nested solver scheme
     inner solver                      =                       cg
     inner core                        =                      fft
     type of pbc corrections           =                parabolic
     numerical core for corrections    =                      1da

     >>>>> Grand-Canonical SCF is activated <<<<<
     Initial Total Charge  =     0.000000 e
     Target Fermi Energy   =    -2.904000 eV
     Thr. of Fermi Energy  =     0.001000 eV
     Wave-shift of Kerker  =     0.400000 bohr^-1
     Wave-shift of Hartree =     1.500000 bohr^-1
     Mixing Rate of Fermi  =     0.050000

     celldm(1)=  18.360747  celldm(2)=   1.118034  celldm(3)=   5.615419
     celldm(4)=   0.223607  celldm(5)=   0.000000  celldm(6)=   0.000000

     crystal axes: (cart. coord. in units of alat)
               a(1) = (   1.000000   0.000000   0.000000 )
               a(2) = (   0.250000   1.089725   0.000000 )
               a(3) = (   0.000000   0.000000   5.615419 )

     reciprocal axes: (cart. coord. in units 2 pi/alat)
               b(1) = (  1.000000 -0.229416  0.000000 )
               b(2) = (  0.000000  0.917663  0.000000 )
               b(3) = (  0.000000  0.000000  0.178081 )

     PseudoPot. # 1 for Li read from file:
     /work/e89/e89/ba3g18/Repos/Pseudopotentials/Pslibrary/Li.pbe-sl-kjpaw_psl.1.0.0.UPF
     MD5 check sum: 3f4d2cafebb47c6c3aa8ed472e6f074d
     Pseudo is Projector augmented-wave, Zval =  3.0
     Generated using 'atomic' code by A. Dal Corso  v.7.4
     Shape of augmentation charge: PSQ
     Using radial grid of 1017 points,  4 beta functions with:
                l(1) =   0
                l(2) =   0
                l(3) =   1
                l(4) =   1
     Q(r) pseudized with 0 coefficients

     atomic species   valence    mass     pseudopotential
     Li                3.00     6.94000     Li( 1.00)

     No symmetry found

                                    s                        frac. trans.

      isym =  1     identity

 cryst.   s( 1) = (     1          0          0      )
                  (     0          1          0      )
                  (     0          0          1      )

 cart.    s( 1) = (  1.0000000  0.0000000  0.0000000 )
                  (  0.0000000  1.0000000  0.0000000 )
                  (  0.0000000  0.0000000  1.0000000 )

     point group C_1 (1)
     there are  1 classes
     the character table:

       E
A      1.00

     the symmetry operations in each class and the name of the first element:

     E        1
          identity

   Cartesian axes

     site n.     atom                  positions (alat units)
         1        Li     tau(   1) = (   0.0010106  -0.0652653   3.5582675  )
         2        Li     tau(   2) = (   0.2489803   0.7563107   2.0928696  )
         3        Li     tau(   3) = (   0.2490104   0.3867766   2.1968212  )
         4        Li     tau(   4) = (   0.2489576   0.0602942   2.3014124  )
         5        Li     tau(   5) = (   0.4989573   0.8120510   2.3201154  )
         6        Li     tau(   6) = (   0.4989716   0.4401561   2.4077535  )
         7        Li     tau(   7) = (   0.4989806   0.1125533   2.4969369  )
         8        Li     tau(   8) = (   0.2491329   0.8604345   2.5752496  )
         9        Li     tau(   9) = (   0.2493827   0.5186067   2.6653848  )
        10        Li     tau(  10) = (   0.2496438   0.1674365   2.7557577  )
        11        Li     tau(  11) = (   0.5001862   0.9129288   2.8337827  )
        12        Li     tau(  12) = (   0.5005098   0.5757108   2.9069077  )
        13        Li     tau(  13) = (   0.5007503   0.2338477   3.0063288  )
        14        Li     tau(  14) = (   0.2509532   0.9849240   3.0572295  )
        15        Li     tau(  15) = (   0.2510181   0.6311007   3.1340283  )
        16        Li     tau(  16) = (   0.2510443   0.2876826   3.2433724  )
        17        Li     tau(  17) = (   0.5010531   1.0302326   3.3250343  )
        18        Li     tau(  18) = (   0.5010225   0.7226172   3.4247181  )
        19        Li     tau(  19) = (   0.5009968   0.3460632   3.4761132  )
        20        Li     tau(  20) = (   0.2489468   0.9771550   2.2903845  )
        21        Li     tau(  21) = (   0.2489556   0.6299804   2.3720464  )
        22        Li     tau(  22) = (   0.2489818   0.2865620   2.4813907  )
        23        Li     tau(  23) = (   0.4990469   1.0224636   2.5581895  )
        24        Li     tau(  24) = (   0.4992499   0.6838154   2.6090900  )
        25        Li     tau(  25) = (   0.4994904   0.3419525   2.7085113  )
        26        Li     tau(  26) = (   0.4998141   0.0047340   2.7816362  )
        27        Li     tau(  27) = (   0.2503564   0.7502263   2.8596613  )
        28        Li     tau(  28) = (   0.2506175   0.3990565   2.9500340  )
        29        Li     tau(  29) = (   0.2508673   0.0572285   3.0401693  )
        30        Li     tau(  30) = (   0.5010194   0.8051094   3.1184821  )
        31        Li     tau(  31) = (   0.5010283   0.4775066   3.2076654  )
        32        Li     tau(  32) = (   0.5010425   0.1056118   3.2953034  )
        33        Li     tau(  33) = (   0.2510423   0.8573686   3.3140065  )
        34        Li     tau(  34) = (   0.2509894   0.5308865   3.4185978  )
        35        Li     tau(  35) = (   0.2510194   0.1613522   3.5225492  )
        36        Li     tau(  36) = (   0.4989891   0.9829279   2.0571512  )
        37        Li     tau(  37) = (   0.4990029   0.5715993   2.1393058  )
        38        Li     tau(  38) = (   0.4989774   0.1950458   2.1907007  )
        39        Li     tau(  39) = (   0.5010105  -0.0652652   3.5582675  )
        40        Li     tau(  40) = (   0.7489803   0.7563106   2.0928696  )
        41        Li     tau(  41) = (   0.7490104   0.3867766   2.1968212  )
        42        Li     tau(  42) = (   0.7489576   0.0602942   2.3014125  )
        43        Li     tau(  43) = (   0.9989573   0.8120511   2.3201154  )
        44        Li     tau(  44) = (   0.9989716   0.4401561   2.4077535  )
        45        Li     tau(  45) = (   0.9989806   0.1125533   2.4969368  )
        46        Li     tau(  46) = (   0.7491329   0.8604345   2.5752496  )
        47        Li     tau(  47) = (   0.7493828   0.5186067   2.6653848  )
        48        Li     tau(  48) = (   0.7496439   0.1674365   2.7557577  )
        49        Li     tau(  49) = (   1.0001862   0.9129288   2.8337827  )
        50        Li     tau(  50) = (   1.0005098   0.5757108   2.9069077  )
        51        Li     tau(  51) = (   1.0007503   0.2338476   3.0063287  )
        52        Li     tau(  52) = (   0.7509532   0.9849240   3.0572295  )
        53        Li     tau(  53) = (   0.7510181   0.6311007   3.1340284  )
        54        Li     tau(  54) = (   0.7510443   0.2876826   3.2433724  )
        55        Li     tau(  55) = (   1.0010531   1.0302326   3.3250343  )
        56        Li     tau(  56) = (   1.0010225   0.7226171   3.4247180  )
        57        Li     tau(  57) = (   1.0009968   0.3460632   3.4761131  )
        58        Li     tau(  58) = (   0.7489468   0.9771550   2.2903845  )
        59        Li     tau(  59) = (   0.7489556   0.6299804   2.3720465  )
        60        Li     tau(  60) = (   0.7489818   0.2865620   2.4813907  )
[...]
     atom   13 type  1   force =     0.00000000    0.00000000    0.00000000
     atom   14 type  1   force =     0.00000000    0.00000000    0.00000000
     atom   15 type  1   force =     0.00000000    0.00000000    0.00000000
     atom   16 type  1   force =     0.00000000    0.00000000    0.00000000
     atom   17 type  1   force =     0.00000000    0.00000000    0.00000000
     atom   18 type  1   force =     0.00000000    0.00000000    0.00000000
     atom   19 type  1   force =     0.00000000    0.00000000    0.00000000
     atom   20 type  1   force =     0.00000000    0.00000000    0.00000000
     atom   21 type  1   force =     0.00000000    0.00000000    0.00000000
     atom   22 type  1   force =     0.00000000    0.00000000    0.00000000
     atom   23 type  1   force =     0.00000000    0.00000000    0.00000000
     atom   24 type  1   force =     0.00000000    0.00000000    0.00000000
     atom   25 type  1   force =     0.00000000    0.00000000    0.00000000
     atom   26 type  1   force =     0.00000000    0.00000000    0.00000000
     atom   27 type  1   force =     0.00000000    0.00000000    0.00000000
     atom   28 type  1   force =     0.00000000    0.00000000    0.00000000
     atom   29 type  1   force =     0.00000000    0.00000000    0.00000000
     atom   30 type  1   force =     0.00000000    0.00000000    0.00000000
     atom   31 type  1   force =     0.00000000    0.00000000    0.00000000
     atom   32 type  1   force =     0.00000000    0.00000000    0.00000000
     atom   33 type  1   force =     0.00000000    0.00000000    0.00000000
     atom   34 type  1   force =     0.00000000    0.00000000    0.00000000
     atom   35 type  1   force =     0.00000000    0.00000000    0.00000000
     atom   36 type  1   force =     0.00000000    0.00000000    0.00000000
     atom   37 type  1   force =     0.00000000    0.00000000    0.00000000
     atom   38 type  1   force =     0.00000000    0.00000000    0.00000000
     atom   39 type  1   force =     0.00000000    0.00000000    0.00000000
     atom   40 type  1   force =     0.00000000    0.00000000    0.00000000
     atom   41 type  1   force =     0.00000000    0.00000000    0.00000000
     atom   42 type  1   force =     0.00000000    0.00000000    0.00000000
     atom   43 type  1   force =     0.00000000    0.00000000    0.00000000
     atom   44 type  1   force =     0.00000000    0.00000000    0.00000000
     atom   45 type  1   force =     0.00000000    0.00000000    0.00000000
     atom   46 type  1   force =     0.00000000    0.00000000    0.00000000
     atom   47 type  1   force =     0.00000000    0.00000000    0.00000000
     atom   48 type  1   force =     0.00000000    0.00000000    0.00000000
     atom   49 type  1   force =     0.00000000    0.00000000    0.00000000
     atom   50 type  1   force =     0.00000000    0.00000000    0.00000000
     atom   51 type  1   force =     0.00000000    0.00000000    0.00000000
     atom   52 type  1   force =     0.00000000    0.00000000    0.00000000
     atom   53 type  1   force =     0.00000000    0.00000000    0.00000000
     atom   54 type  1   force =     0.00000000    0.00000000    0.00000000
     atom   55 type  1   force =     0.00000000    0.00000000    0.00000000
     atom   56 type  1   force =     0.00000000    0.00000000    0.00000000
     atom   57 type  1   force =     0.00000000    0.00000000    0.00000000
     atom   58 type  1   force =     0.00000000    0.00000000    0.00000000
     atom   59 type  1   force =     0.00000000    0.00000000    0.00000000
     atom   60 type  1   force =     0.00000000    0.00000000    0.00000000
     atom   61 type  1   force =     0.00000000    0.00000000    0.00000000
     atom   62 type  1   force =     0.00000000    0.00000000    0.00000000
     atom   63 type  1   force =     0.00000000    0.00000000    0.00000000
     atom   64 type  1   force =     0.00000000    0.00000000    0.00000000
     atom   65 type  1   force =     0.00000000    0.00000000    0.00000000
     atom   66 type  1   force =     0.00000000    0.00000000    0.00000000
     atom   67 type  1   force =     0.00000000    0.00000000    0.00000000
     atom   68 type  1   force =     0.00000000    0.00000000    0.00000000
     atom   69 type  1   force =     0.00000000    0.00000000    0.00000000
     atom   70 type  1   force =     0.00000000    0.00000000    0.00000000
     atom   71 type  1   force =     0.00000000    0.00000000    0.00000000
     atom   72 type  1   force =     0.00000000    0.00000000    0.00000000
     atom   73 type  1   force =     0.00000000    0.00000000    0.00000000
     atom   74 type  1   force =     0.00000000    0.00000000    0.00000000
     atom   75 type  1   force =     0.00000000    0.00000000    0.00000000
     atom   76 type  1   force =     0.00000000    0.00000000    0.00000000
     The SCF correction term to forces
     atom    1 type  1   force =     0.00000001   -0.00000000   -0.00000046
     atom    2 type  1   force =    -0.00000002   -0.00000009    0.00000098
     atom    3 type  1   force =     0.00000002    0.00000021    0.00000091
     atom    4 type  1   force =     0.00000001   -0.00000037    0.00000218
     atom    5 type  1   force =     0.00000001   -0.00000006    0.00000093
     atom    6 type  1   force =    -0.00000001    0.00000021    0.00000129
     atom    7 type  1   force =     0.00000001   -0.00000018    0.00000131
     atom    8 type  1   force =    -0.00000001   -0.00000006    0.00000088
     atom    9 type  1   force =     0.00000000    0.00000022    0.00000064
     atom   10 type  1   force =     0.00000001   -0.00000012    0.00000042
     atom   11 type  1   force =     0.00000001    0.00000000   -0.00000018
     atom   12 type  1   force =     0.00000002    0.00000001   -0.00000052
     atom   13 type  1   force =     0.00000001   -0.00000005   -0.00000068
     atom   14 type  1   force =    -0.00000001    0.00000012   -0.00000102
     atom   15 type  1   force =    -0.00000000   -0.00000004   -0.00000139
     atom   16 type  1   force =    -0.00000001   -0.00000016   -0.00000138
     atom   17 type  1   force =    -0.00000000    0.00000013   -0.00000005
     atom   18 type  1   force =     0.00000004    0.00000007   -0.00000061
     atom   19 type  1   force =     0.00000002   -0.00000021   -0.00000092
     atom   20 type  1   force =    -0.00000001   -0.00000020    0.00000009
     atom   21 type  1   force =    -0.00000001    0.00000018    0.00000140
     atom   22 type  1   force =     0.00000001    0.00000010    0.00000133
     atom   23 type  1   force =     0.00000001   -0.00000022    0.00000097
     atom   24 type  1   force =     0.00000001    0.00000004    0.00000064
     atom   25 type  1   force =     0.00000001    0.00000008    0.00000046
     atom   26 type  1   force =     0.00000000   -0.00000012    0.00000015
     atom   27 type  1   force =    -0.00000001    0.00000011   -0.00000047
     atom   28 type  1   force =    -0.00000000   -0.00000011   -0.00000069
     atom   29 type  1   force =     0.00000001   -0.00000002   -0.00000088
     atom   30 type  1   force =     0.00000000    0.00000012   -0.00000134
     atom   31 type  1   force =     0.00000001   -0.00000015   -0.00000129
     atom   32 type  1   force =     0.00000000    0.00000000   -0.00000089
     atom   33 type  1   force =    -0.00000000    0.00000033   -0.00000221
     atom   34 type  1   force =    -0.00000001   -0.00000022   -0.00000082
     atom   35 type  1   force =    -0.00000002    0.00000001   -0.00000095
     atom   36 type  1   force =    -0.00000001    0.00000005    0.00000058
     atom   37 type  1   force =    -0.00000006    0.00000025    0.00000097
     atom   38 type  1   force =     0.00000000   -0.00000005    0.00000065
     atom   39 type  1   force =     0.00000001   -0.00000000   -0.00000046
     atom   40 type  1   force =    -0.00000001   -0.00000008    0.00000099
     atom   41 type  1   force =     0.00000002    0.00000022    0.00000093
     atom   42 type  1   force =     0.00000000   -0.00000037    0.00000219
     atom   43 type  1   force =    -0.00000000   -0.00000005    0.00000093
     atom   44 type  1   force =    -0.00000002    0.00000022    0.00000129
     atom   45 type  1   force =    -0.00000001   -0.00000017    0.00000131
     atom   46 type  1   force =     0.00000001   -0.00000007    0.00000089
     atom   47 type  1   force =     0.00000001    0.00000022    0.00000065
     atom   48 type  1   force =     0.00000000   -0.00000012    0.00000042
     atom   49 type  1   force =    -0.00000000    0.00000001   -0.00000018
     atom   50 type  1   force =    -0.00000001    0.00000001   -0.00000052
     atom   51 type  1   force =    -0.00000001   -0.00000005   -0.00000068
     atom   52 type  1   force =     0.00000001    0.00000011   -0.00000102
     atom   53 type  1   force =     0.00000000   -0.00000004   -0.00000139
     atom   54 type  1   force =    -0.00000000   -0.00000016   -0.00000138
     atom   55 type  1   force =    -0.00000001    0.00000013   -0.00000005
     atom   56 type  1   force =     0.00000003    0.00000008   -0.00000063
     atom   57 type  1   force =     0.00000001   -0.00000021   -0.00000093
     atom   58 type  1   force =    -0.00000000   -0.00000020    0.00000009
     atom   59 type  1   force =    -0.00000000    0.00000018    0.00000141
     atom   60 type  1   force =     0.00000001    0.00000010    0.00000134
     atom   61 type  1   force =    -0.00000001   -0.00000021    0.00000098
     atom   62 type  1   force =    -0.00000001    0.00000005    0.00000065
     atom   63 type  1   force =    -0.00000001    0.00000009    0.00000046
     atom   64 type  1   force =    -0.00000002   -0.00000012    0.00000015
     atom   65 type  1   force =     0.00000001    0.00000011   -0.00000047
     atom   66 type  1   force =     0.00000000   -0.00000012   -0.00000069
     atom   67 type  1   force =     0.00000000   -0.00000002   -0.00000088
     atom   68 type  1   force =    -0.00000001    0.00000013   -0.00000134
     atom   69 type  1   force =    -0.00000000   -0.00000014   -0.00000130
     atom   70 type  1   force =    -0.00000001    0.00000000   -0.00000088
     atom   71 type  1   force =     0.00000001    0.00000033   -0.00000221
     atom   72 type  1   force =    -0.00000000   -0.00000022   -0.00000084
     atom   73 type  1   force =    -0.00000003    0.00000001   -0.00000093
     atom   74 type  1   force =     0.00000001    0.00000006    0.00000057
     atom   75 type  1   force =    -0.00000006    0.00000025    0.00000096
     atom   76 type  1   force =    -0.00000002   -0.00000005    0.00000064

     Total force =     0.000816     Total SCF correction =     0.000009
     Energy error            =      9.8E-07 Ry
     Gradient error          =      1.8E-04 Ry/Bohr

     bfgs converged in  18 scf cycles and  16 bfgs steps
     (criteria: energy <  1.0E-05 Ry, force <  3.9E-04 Ry/Bohr)

     End of BFGS Geometry Optimization

     Final energy             =   -1142.8689907480 Ry

     File ./Li/Lithium.bfgs deleted, as requested
Begin final coordinates

ATOMIC_POSITIONS (angstrom)
Li               0.0099762171       -0.6276029227       34.5704653490
Li               2.4189452224        7.3446688357       20.3429649518
Li               2.4191835442        3.7530189952       21.3336222956
Li               2.4188144151        0.6054802029       22.3595497063
Li               4.8478472511        7.8918089994       22.5502970209
Li               4.8479743201        4.2606017119       23.3842704907
Li               4.8480097306        1.0945647826       24.2781851969
Li               2.4203951668        8.3622713761       25.0082071070
Li               2.4229413923        5.0407118078       25.9015492552
Li               2.4255906509        1.6148678588       26.7854553560
Li               4.8597362440        8.8796479057       27.5207570128
Li               4.8630557858        5.5980304242       28.2382845158
Li               4.8654432497        2.2773094948       29.2122904529
Li               2.4385429043        9.5635375933       29.7076388571
Li               2.4389808651        6.1236452800       30.4342519706
Li               2.4392513348        2.8094404812       31.5156366099
Li               4.8683297805        9.9975015222       32.3069560405
Li               4.8681389891        7.0149125274       33.2773617988
Li               4.8679459251        3.3604682795       33.7792055134
Li               2.4187352089        9.5064626785       22.2529299371
Li               2.4187881468        6.1066459088       23.0442721012
Li               2.4190614982        2.7924547706       24.1256636646
Li               4.8485360597        9.9404165503       24.8522919650
Li               4.8506436832        6.6387868486       25.3476493614
Li               4.8530325066        3.3180696869       26.3216667662
Li               4.8563529610        0.0364443871       27.0391982081
Li               2.4324566749        7.3012303570       27.7744918517
Li               2.4351003763        3.8753835043       28.6584099992
Li               2.4376552160        0.5538239876       29.5517238399
Li               4.8680769993        7.8215205040       30.2817392546
Li               4.8681175713        4.6555010735       31.1756241752
Li               4.8682406913        1.0242752984       32.0095965941
Li               2.4392251768        8.3106086832       32.2003449745
Li               2.4388577822        5.1630652593       33.2262371193
Li               2.4390998099        1.5714313195       34.2169237302
Li               4.8480641947        9.5436965617       19.9894118312
Li               4.8481381527        5.5556222411       20.7806538727
Li               4.8479422972        1.9011829733       21.2825171346
Li               4.8680367255       -0.6276001482       34.5704644265
Li               7.2769811437        7.3446650283       20.3429641590
Li               7.2772333826        3.7530281812       21.3336300418
Li               7.2768602200        0.6054837426       22.3595467639
Li               9.7058946909        7.8918148169       22.5502932184
Li               9.7060177661        4.2605975594       23.3842696946
Li               9.7060609275        1.0945636321       24.2781835846
Li               7.2784395964        8.3622700447       25.0082093706
Li               7.2809816684        5.0407183650       25.9015431841
Li               7.2836385883        1.6148725876       26.7854608316
Li               9.7177816708        8.8796416967       27.5207574173
Li               9.7210992375        5.5980313040       28.2382862856
Li               9.7234843171        2.2773038175       29.2122867034
Li               7.2965773686        9.5635324357       29.7076366108
Li               7.2970370149        6.1236505294       30.4342511916
Li               7.2973019414        2.8094412204       31.5156257770
Li               9.7263829210        9.9975018340       32.3069547593
Li               9.7261903635        7.0149081856       33.2773578446
Li               9.7259956390        3.3604675426       33.7792000878
Li               7.2767744081        9.5064634634       22.2529324623
Li               7.2768318437        6.1066532967       23.0442678699
Li               7.2771030209        2.7924544852       24.1256694903
Li               9.7065767433        9.9404202839       24.8522941540
Li               9.7086927954        6.6387765721       25.3476519092
Li               9.7110787061        3.3180686785       26.3216669811
Li               9.7143987922        0.0364400462       27.0391950512
Li               7.2904931930        7.3012309300       27.7744898593
Li               7.2931491424        3.8753892783       28.6584084999
Li               7.2956952647        0.5538136372       29.5517213241
Li               9.7261235973        7.8215265076       30.2817392011
Li               9.7261566647        4.6554937044       31.1756238601
Li               9.7262840323        1.0242765941       32.0095955983
Li               7.2972725432        8.3106119531       32.2003466284
Li               7.2968990658        5.1630649345       33.2262414450
Li               7.2971488369        1.5714361789       34.2169101828
Li               9.7060971980        9.5437011398       19.9893991729
Li               9.7061842863        5.5556259823       20.7806529629
Li               9.7059861110        1.9011803326       21.2825180251
End final coordinates

     Writing all to output data dir ./Li/Lithium.save/ :
     XML data file

     General routines

     Parallel routines

     PAW routines

     Environ routines

   This run was terminated on:  22: 3:54   3Jan2025

   JOB DONE.