     Program PWSCF v.7.4 starts on  6Jan2025 at  8:22:12
        Git branch: develop
        Last git commit: e877ff360aceba4b8d76ffc2fb1c70545fc5dd57
        Last git commit date: Sat Jan 4 12:56:15 2025 +0000
        Last git commit subject: Merge branch 'orthoU' into 'develop'

     Reading input from espresso.pwi
Warning: card &CELL ignored
Warning: card    PRESS_CONV_THR   = 0.1 ignored
Warning: card    CELL_DOFREE      = 'ALL' ignored
Warning: card / ignored
Warning: card &FCP ignored
Warning: card / ignored
Warning: card &RISM ignored
Warning: card / ignored

     Current dimensions of program PWSCF are:
     Max number of different atomic species (ntypx) = 10
     Max number of k-points (npk) =  40000
     Max angular momentum in pseudopotentials (lmaxx) =  4

     IMPORTANT: XC functional enforced from input :
     Exchange-correlation= PBE
                           (   1   4   3   4   0   0   0)
     Any further DFT definition will be discarded
     Please, verify this is what you really want

     Reading input from environ.in:
     * using ionic solvent mode
     * setting boundary derivatives method to SSCS default
     * setting electrolyte-boundary derivatives method to SSCS default

Environ Warning (1001): card EOF ignored

     Found identity + (  0.5000 -0.0000  0.0000) symmetry
     This is a supercell, fractional translations are disabled

     K-points division:     npool     =       2
     R & G space division:  proc/nbgrp/npool/nimage =     220
     Subspace diagonalization in iterative solution of the eigenvalue problem:
     a serial algorithm will be used

     Using Slab Decomposition

     bravais-lattice index     =           12
     lattice parameter (alat)  =      18.3607  a.u.
     unit-cell volume          =   26895.2624 (a.u.)^3
     number of atoms/cell      =           44
     number of atomic types    =            1
     number of electrons       =       132.00
     number of Kohn-Sham states=           99
     kinetic-energy cutoff     =      80.0000  Ry
     charge density cutoff     =     800.0000  Ry
     scf convergence threshold =      1.0E-14
     mixing beta               =       0.2000
     number of iterations used =            8  local-TF  mixing
     Exchange-correlation= PBE
                           (   1   4   3   4   0   0   0)

                                  Environ Setup Summary

          O. Andreussi, I. Dabo and N. Marzari, J. Chem. Phys. 136, 064102 (2012)
          F. Nattino, M. Truscott, N. Marzari, and O. Andreussi, J. Chem. Phys. 150, 041722 (2019)

     in publications or presentations arising from this work.

     Parameters

     compensation onset threshold      =               0.1000E+00
     static permittivity               =                    89.90
     surface tension in input (dyn/cm) =                    37.30
     surface tension in internal units =               0.4792E-04

     Solvent Boundary

     solvent mode                      =                    ionic
     derivatives method                =                   lowmem
     electrolyte derivatives method    =                   lowmem
     numerical core for derivatives    =                      fft
     switching function adopted        =                     SCCS
     density limit for vacuum region   =               0.5000E-02
     density limit for bulk solvent    =               0.1000E-03
     soft-sphere radius mode           =                    bondi
     soft-sphere softness              =                     0.50
     alpha                             =                     1.32

     Electrostatic Setup

     electrostatic problem to solve    =                    modpb
     numerical solver adopted          =                   newton
     type of auxiliary density adopted =                     none
     numerical core for poisson        =                      fft
     adopting a nested solver scheme
     inner solver                      =                       cg
     inner core                        =                      fft
     type of pbc corrections           =                parabolic
     numerical core for corrections    =                      1da

     >>>>> Grand-Canonical SCF is activated <<<<<
     Initial Total Charge  =     0.000000 e
     Target Fermi Energy   =    -3.904000 eV
     Thr. of Fermi Energy  =     0.001000 eV
     Wave-shift of Kerker  =     0.400000 bohr^-1
     Wave-shift of Hartree =     1.500000 bohr^-1
     Mixing Rate of Fermi  =     0.050000

     celldm(1)=  18.360747  celldm(2)=   0.866025  celldm(3)=   5.240449
     celldm(4)=  -0.288675  celldm(5)=   0.000000  celldm(6)=   0.000000

     crystal axes: (cart. coord. in units of alat)
               a(1) = (   1.000000   0.000000   0.000000 )
               a(2) = (  -0.250000   0.829156   0.000000 )
               a(3) = (   0.000000   0.000000   5.240449 )

     reciprocal axes: (cart. coord. in units 2 pi/alat)
               b(1) = (  1.000000  0.301511  0.000000 )
               b(2) = (  0.000000  1.206046  0.000000 )
               b(3) = (  0.000000  0.000000  0.190823 )

     PseudoPot. # 1 for Li read from file:
     /home/mmm1182/Repos/Pseudopotentials/pslibrary/Li.pbe-sl-kjpaw_psl.1.0.0.UPF
     MD5 check sum: f40bb4162937df3f7c561f1969c76545
     Pseudo is Projector augmented-wave, Zval =  3.0
     Generated using 'atomic' code by A. Dal Corso  v.7.3.1
     Shape of augmentation charge: PSQ
     Using radial grid of 1017 points,  4 beta functions with:
                l(1) =   0
                l(2) =   0
                l(3) =   1
                l(4) =   1
     Q(r) pseudized with 0 coefficients

     atomic species   valence    mass     pseudopotential
     Li                3.00     6.94000     Li( 1.00)

     No symmetry found

                                    s                        frac. trans.

      isym =  1     identity

 cryst.   s( 1) = (     1          0          0      )
                  (     0          1          0      )
                  (     0          0          1      )

 cart.    s( 1) = (  1.0000000  0.0000000  0.0000000 )
                  (  0.0000000  1.0000000  0.0000000 )
                  (  0.0000000  0.0000000  1.0000000 )

     point group C_1 (1)
     there are  1 classes
     the character table:

       E
A      1.00

     the symmetry operations in each class and the name of the first element:

     E        1
          identity

   Cartesian axes

     site n.     atom                  positions (alat units)
         1        Li     tau(   1) = (  -0.2500307   0.7117620   2.0150772  )
         2        Li     tau(   2) = (   0.2498857   0.2678729   3.1832286  )
         3        Li     tau(   3) = (  -0.0000140   0.4752254   3.0308699  )
         4        Li     tau(   4) = (   0.2500279   0.6718831   2.9105629  )
         5        Li     tau(   5) = (   0.2499519   0.0831819   2.7993432  )
         6        Li     tau(   6) = (  -0.0000026   0.3047183   2.7090483  )
         7        Li     tau(   7) = (   0.2500130   0.5214363   2.6008929  )
         8        Li     tau(   8) = (  -0.0000158   0.7501570   2.4873776  )
         9        Li     tau(   9) = (   0.0000306   0.1609323   2.3551333  )
        10        Li     tau(  10) = (   0.2499894   0.3766243   2.2625074  )
        11        Li     tau(  11) = (  -0.0000044   0.5686625   2.1847150  )
        12        Li     tau(  12) = (   0.0000106   0.1510205   2.9779412  )
        13        Li     tau(  13) = (   0.2499696   0.3667102   2.8853168  )
        14        Li     tau(  14) = (   0.0000155   0.6066415   2.7530728  )
        15        Li     tau(  15) = (   0.2499868   0.8353621   2.6395572  )
        16        Li     tau(  16) = (   0.2500029   0.2229246   2.5314007  )
        17        Li     tau(  17) = (   0.0000481   0.4444630   2.4411047  )
        18        Li     tau(  18) = (   0.2499719   0.6849182   2.3298884  )
        19        Li     tau(  19) = (   0.2500141   0.0524209   2.2095819  )
        20        Li     tau(  20) = (   0.0001144   0.2597724   2.0572238  )
        21        Li     tau(  21) = (   0.2500305   0.6450449   3.2253745  )
        22        Li     tau(  22) = (   0.0000040   0.7881406   3.0557334  )
        23        Li     tau(  23) = (   0.2499693   0.7117619   2.0150773  )
        24        Li     tau(  24) = (   0.7498857   0.2678729   3.1832286  )
        25        Li     tau(  25) = (   0.4999860   0.4752254   3.0308700  )
        26        Li     tau(  26) = (   0.7500279   0.6718830   2.9105629  )
        27        Li     tau(  27) = (   0.7499518   0.0831818   2.7993432  )
        28        Li     tau(  28) = (   0.4999973   0.3047182   2.7090483  )
        29        Li     tau(  29) = (   0.7500131   0.5214363   2.6008928  )
        30        Li     tau(  30) = (   0.4999842   0.7501569   2.4873776  )
        31        Li     tau(  31) = (   0.5000306   0.1609323   2.3551333  )
        32        Li     tau(  32) = (   0.7499894   0.3766243   2.2625074  )
        33        Li     tau(  33) = (   0.4999957   0.5686624   2.1847150  )
        34        Li     tau(  34) = (   0.5000106   0.1510206   2.9779412  )
        35        Li     tau(  35) = (   0.7499695   0.3667102   2.8853169  )
        36        Li     tau(  36) = (   0.5000155   0.6066415   2.7530728  )
        37        Li     tau(  37) = (   0.7499868   0.8353621   2.6395572  )
        38        Li     tau(  38) = (   0.7500029   0.2229246   2.5314008  )
        39        Li     tau(  39) = (   0.5000480   0.4444630   2.4411047  )
        40        Li     tau(  40) = (   0.7499718   0.6849182   2.3298884  )
        41        Li     tau(  41) = (   0.7500141   0.0524209   2.2095819  )
        42        Li     tau(  42) = (   0.5001144   0.2597723   2.0572239  )
        43        Li     tau(  43) = (   0.7500306   0.6450450   3.2253745  )
        44        Li     tau(  44) = (   0.5000040   0.7881406   3.0557335  )

   Crystallographic axes

     site n.     atom                  positions (cryst. coord.)
         1        Li     tau(   1) = ( -0.0354264  0.8584174  0.3845238  )
         2        Li     tau(   2) = (  0.3306524  0.3230669  0.6074343  )
         3        Li     tau(   3) = (  0.1432719  0.5731435  0.5783607  )
         4        Li     tau(   4) = (  0.4526083  0.8103217  0.5554033  )
         5        Li     tau(   5) = (  0.2750321  0.1003211  0.5341800  )
         6        Li     tau(   6) = (  0.0918734  0.3675041  0.5169497  )
         7        Li     tau(   7) = (  0.4072320  0.6288760  0.4963111  )
         8        Li     tau(   8) = (  0.2261651  0.9047236  0.4746497  )
         9        Li     tau(   9) = (  0.0485535  0.1940917  0.4494144  )
        10        Li     tau(  10) = (  0.3635459  0.4542261  0.4317392  )
        11        Li     tau(  11) = (  0.1714539  0.6858329  0.4168946  )
        12        Li     tau(  12) = (  0.0455450  0.1821377  0.5682607  )
        13        Li     tau(  13) = (  0.3605369  0.4422692  0.5505858  )
        14        Li     tau(  14) = (  0.1829249  0.7316374  0.5253506  )
        15        Li     tau(  15) = (  0.5018580  1.0074848  0.5036891  )
[...]
     atom    7 type  1   force =     0.00017329   -0.03618940   -0.43391552
     atom    8 type  1   force =    -0.00005094    0.04211022   -3.04779259
     atom    9 type  1   force =    -0.00031920    0.00754869   -6.08558930
     atom   10 type  1   force =     0.00056684   -0.07979399   -8.29352136
     atom   11 type  1   force =    -0.00032411   -0.11536676   -9.85021107
     atom   12 type  1   force =    -0.00056816    0.07981287    8.29349611
     atom   13 type  1   force =     0.00031922   -0.00752016    6.08560979
     atom   14 type  1   force =     0.00005174   -0.04211962    3.04781816
     atom   15 type  1   force =    -0.00017429    0.03618277    0.43393325
     atom   16 type  1   force =     0.00023235    0.01793918   -2.06291077
     atom   17 type  1   force =    -0.00039054   -0.06006170   -4.08130195
     atom   18 type  1   force =     0.00025506    0.00543262   -6.60756646
     atom   19 type  1   force =     0.00012243    0.15922163   -9.32952745
     atom   20 type  1   force =    -0.00024896    0.05318061  -11.62338174
     atom   21 type  1   force =    -0.00009783    0.02141533   11.99405053
     atom   22 type  1   force =     0.00032538    0.11535618    9.85017259
     atom   23 type  1   force =     0.00009773   -0.02142747  -11.99405229
     atom   24 type  1   force =     0.00024899   -0.05316224   11.62338655
     atom   25 type  1   force =    -0.00012274   -0.15922818    9.32955513
     atom   26 type  1   force =    -0.00025601   -0.00546205    6.60759061
     atom   27 type  1   force =     0.00039122    0.06005033    4.08126336
     atom   28 type  1   force =    -0.00023244   -0.01791852    2.06289290
     atom   29 type  1   force =     0.00017341   -0.03618977   -0.43391646
     atom   30 type  1   force =    -0.00005058    0.04211012   -3.04779225
     atom   31 type  1   force =    -0.00031919    0.00754868   -6.08558852
     atom   32 type  1   force =     0.00056688   -0.07979386   -8.29352040
     atom   33 type  1   force =    -0.00032391   -0.11536689   -9.85021142
     atom   34 type  1   force =    -0.00056775    0.07981275    8.29349598
     atom   35 type  1   force =     0.00031930   -0.00752038    6.08560975
     atom   36 type  1   force =     0.00005187   -0.04211967    3.04781874
     atom   37 type  1   force =    -0.00017404    0.03618256    0.43393316
     atom   38 type  1   force =     0.00023235    0.01793985   -2.06290996
     atom   39 type  1   force =    -0.00039000   -0.06006165   -4.08130176
     atom   40 type  1   force =     0.00025539    0.00543256   -6.60756715
     atom   41 type  1   force =     0.00012266    0.15922184   -9.32952677
     atom   42 type  1   force =    -0.00024879    0.05318081  -11.62338166
     atom   43 type  1   force =    -0.00009800    0.02141520   11.99405062
     atom   44 type  1   force =     0.00032527    0.11535618    9.85017417
     The local contribution  to forces
     atom    1 type  1   force =    -0.00014849    0.02674997   12.07387058
     atom    2 type  1   force =    -0.00028430    0.06060440  -11.73381027
     atom    3 type  1   force =     0.00015093    0.17564582   -9.44105454
     atom    4 type  1   force =     0.00027469    0.00859335   -6.64510597
     atom    5 type  1   force =    -0.00043256   -0.06445848   -4.12106701
     atom    6 type  1   force =     0.00026689    0.01965268   -2.07984884
     atom    7 type  1   force =    -0.00021928    0.04026984    0.44066802
     atom    8 type  1   force =     0.00001190   -0.04448397    3.06967552
     atom    9 type  1   force =     0.00040778   -0.00580873    6.13197953
     atom   10 type  1   force =    -0.00066030    0.07792595    8.38948658
     atom   11 type  1   force =     0.00045148    0.13313599    9.97146591
     atom   12 type  1   force =     0.00066163   -0.07794590   -8.38946197
     atom   13 type  1   force =    -0.00040780    0.00578011   -6.13200233
     atom   14 type  1   force =    -0.00001266    0.04449434   -3.06970348
     atom   15 type  1   force =     0.00022029   -0.04026277   -0.44068852
     atom   16 type  1   force =    -0.00026612   -0.01967407    2.07986343
     atom   17 type  1   force =     0.00043187    0.06447007    4.12110455
     atom   18 type  1   force =    -0.00027393   -0.00856363    6.64507963
     atom   19 type  1   force =    -0.00015054   -0.17563874    9.44102420
     atom   20 type  1   force =     0.00028420   -0.06062422   11.73380562
     atom   21 type  1   force =     0.00014862   -0.02673680  -12.07386869
     atom   22 type  1   force =    -0.00045266   -0.13312511   -9.97142719
     atom   23 type  1   force =    -0.00014856    0.02675001   12.07387045
     atom   24 type  1   force =    -0.00028427    0.06060421  -11.73381037
     atom   25 type  1   force =     0.00015085    0.17564563   -9.44105545
     atom   26 type  1   force =     0.00027489    0.00859338   -6.64510568
     atom   27 type  1   force =    -0.00043260   -0.06445891   -4.12106769
     atom   28 type  1   force =     0.00026616    0.01965284   -2.07984809
     atom   29 type  1   force =    -0.00021941    0.04027021    0.44066897
     atom   30 type  1   force =     0.00001156   -0.04448386    3.06967519
     atom   31 type  1   force =     0.00040777   -0.00580874    6.13197873
     atom   32 type  1   force =    -0.00066034    0.07792582    8.38948561
     atom   33 type  1   force =     0.00045125    0.13313615    9.97146629
     atom   34 type  1   force =     0.00066122   -0.07794577   -8.38946183
     atom   35 type  1   force =    -0.00040788    0.00578033   -6.13200228
     atom   36 type  1   force =    -0.00001282    0.04449439   -3.06970408
     atom   37 type  1   force =     0.00022003   -0.04026257   -0.44068842
     atom   38 type  1   force =    -0.00026613   -0.01967474    2.07986261
     atom   39 type  1   force =     0.00043132    0.06447003    4.12110436
     atom   40 type  1   force =    -0.00027426   -0.00856356    6.64508033
     atom   41 type  1   force =    -0.00015077   -0.17563894    9.44102351
     atom   42 type  1   force =     0.00028401   -0.06062442   11.73380557
     atom   43 type  1   force =     0.00014880   -0.02673666  -12.07386876
     atom   44 type  1   force =    -0.00045252   -0.13312509   -9.97142885
     The core correction contribution to forces
     atom    1 type  1   force =     0.00000000    0.00000000    0.00000000
     atom    2 type  1   force =     0.00000000    0.00000000    0.00000000
     atom    3 type  1   force =     0.00000000    0.00000000    0.00000000
     atom    4 type  1   force =     0.00000000    0.00000000    0.00000000
     atom    5 type  1   force =     0.00000000    0.00000000    0.00000000
     atom    6 type  1   force =     0.00000000    0.00000000    0.00000000
     atom    7 type  1   force =     0.00000000    0.00000000    0.00000000
     atom    8 type  1   force =     0.00000000    0.00000000    0.00000000
     atom    9 type  1   force =     0.00000000    0.00000000    0.00000000
     atom   10 type  1   force =     0.00000000    0.00000000    0.00000000
     atom   11 type  1   force =     0.00000000    0.00000000    0.00000000
     atom   12 type  1   force =     0.00000000    0.00000000    0.00000000
     atom   13 type  1   force =     0.00000000    0.00000000    0.00000000
     atom   14 type  1   force =     0.00000000    0.00000000    0.00000000
     atom   15 type  1   force =     0.00000000    0.00000000    0.00000000
     atom   16 type  1   force =     0.00000000    0.00000000    0.00000000
     atom   17 type  1   force =     0.00000000    0.00000000    0.00000000
     atom   18 type  1   force =     0.00000000    0.00000000    0.00000000
     atom   19 type  1   force =     0.00000000    0.00000000    0.00000000
     atom   20 type  1   force =     0.00000000    0.00000000    0.00000000
     atom   21 type  1   force =     0.00000000    0.00000000    0.00000000
     atom   22 type  1   force =     0.00000000    0.00000000    0.00000000
     atom   23 type  1   force =     0.00000000    0.00000000    0.00000000
     atom   24 type  1   force =     0.00000000    0.00000000    0.00000000
     atom   25 type  1   force =     0.00000000    0.00000000    0.00000000
     atom   26 type  1   force =     0.00000000    0.00000000    0.00000000
     atom   27 type  1   force =     0.00000000    0.00000000    0.00000000
     atom   28 type  1   force =     0.00000000    0.00000000    0.00000000
     atom   29 type  1   force =     0.00000000    0.00000000    0.00000000
     atom   30 type  1   force =     0.00000000    0.00000000    0.00000000
     atom   31 type  1   force =     0.00000000    0.00000000    0.00000000
     atom   32 type  1   force =     0.00000000    0.00000000    0.00000000
     atom   33 type  1   force =     0.00000000    0.00000000    0.00000000
     atom   34 type  1   force =     0.00000000    0.00000000    0.00000000
     atom   35 type  1   force =     0.00000000    0.00000000    0.00000000
     atom   36 type  1   force =     0.00000000    0.00000000    0.00000000
     atom   37 type  1   force =     0.00000000    0.00000000    0.00000000
     atom   38 type  1   force =     0.00000000    0.00000000    0.00000000
     atom   39 type  1   force =     0.00000000    0.00000000    0.00000000
     atom   40 type  1   force =     0.00000000    0.00000000    0.00000000
     atom   41 type  1   force =     0.00000000    0.00000000    0.00000000
     atom   42 type  1   force =     0.00000000    0.00000000    0.00000000
     atom   43 type  1   force =     0.00000000    0.00000000    0.00000000
     atom   44 type  1   force =     0.00000000    0.00000000    0.00000000
     The Hubbard contrib.    to forces
     atom    1 type  1   force =     0.00000000    0.00000000    0.00000000
     atom    2 type  1   force =     0.00000000    0.00000000    0.00000000
     atom    3 type  1   force =     0.00000000    0.00000000    0.00000000
     atom    4 type  1   force =     0.00000000    0.00000000    0.00000000
     atom    5 type  1   force =     0.00000000    0.00000000    0.00000000
     atom    6 type  1   force =     0.00000000    0.00000000    0.00000000
     atom    7 type  1   force =     0.00000000    0.00000000    0.00000000
     atom    8 type  1   force =     0.00000000    0.00000000    0.00000000
     atom    9 type  1   force =     0.00000000    0.00000000    0.00000000
     atom   10 type  1   force =     0.00000000    0.00000000    0.00000000
     atom   11 type  1   force =     0.00000000    0.00000000    0.00000000
     atom   12 type  1   force =     0.00000000    0.00000000    0.00000000
     atom   13 type  1   force =     0.00000000    0.00000000    0.00000000
     atom   14 type  1   force =     0.00000000    0.00000000    0.00000000
     atom   15 type  1   force =     0.00000000    0.00000000    0.00000000
     atom   16 type  1   force =     0.00000000    0.00000000    0.00000000
     atom   17 type  1   force =     0.00000000    0.00000000    0.00000000
     atom   18 type  1   force =     0.00000000    0.00000000    0.00000000
     atom   19 type  1   force =     0.00000000    0.00000000    0.00000000
     atom   20 type  1   force =     0.00000000    0.00000000    0.00000000
     atom   21 type  1   force =     0.00000000    0.00000000    0.00000000
     atom   22 type  1   force =     0.00000000    0.00000000    0.00000000
     atom   23 type  1   force =     0.00000000    0.00000000    0.00000000
     atom   24 type  1   force =     0.00000000    0.00000000    0.00000000
     atom   25 type  1   force =     0.00000000    0.00000000    0.00000000
     atom   26 type  1   force =     0.00000000    0.00000000    0.00000000
     atom   27 type  1   force =     0.00000000    0.00000000    0.00000000
     atom   28 type  1   force =     0.00000000    0.00000000    0.00000000
     atom   29 type  1   force =     0.00000000    0.00000000    0.00000000
     atom   30 type  1   force =     0.00000000    0.00000000    0.00000000
     atom   31 type  1   force =     0.00000000    0.00000000    0.00000000
     atom   32 type  1   force =     0.00000000    0.00000000    0.00000000
     atom   33 type  1   force =     0.00000000    0.00000000    0.00000000
     atom   34 type  1   force =     0.00000000    0.00000000    0.00000000
     atom   35 type  1   force =     0.00000000    0.00000000    0.00000000
     atom   36 type  1   force =     0.00000000    0.00000000    0.00000000
     atom   37 type  1   force =     0.00000000    0.00000000    0.00000000
     atom   38 type  1   force =     0.00000000    0.00000000    0.00000000
     atom   39 type  1   force =     0.00000000    0.00000000    0.00000000
     atom   40 type  1   force =     0.00000000    0.00000000    0.00000000
     atom   41 type  1   force =     0.00000000    0.00000000    0.00000000
     atom   42 type  1   force =     0.00000000    0.00000000    0.00000000
     atom   43 type  1   force =     0.00000000    0.00000000    0.00000000
     atom   44 type  1   force =     0.00000000    0.00000000    0.00000000
     The SCF correction term to forces
     atom    1 type  1   force =     0.00000001    0.00000000   -0.00000001
     atom    2 type  1   force =     0.00000000   -0.00000001   -0.00000001
     atom    3 type  1   force =     0.00000000   -0.00000000    0.00000002
     atom    4 type  1   force =    -0.00000000    0.00000000   -0.00000002
     atom    5 type  1   force =    -0.00000000   -0.00000001   -0.00000002
     atom    6 type  1   force =    -0.00000000    0.00000000   -0.00000000
     atom    7 type  1   force =    -0.00000000    0.00000001   -0.00000000
     atom    8 type  1   force =     0.00000000   -0.00000001    0.00000003
     atom    9 type  1   force =     0.00000000   -0.00000000    0.00000002
     atom   10 type  1   force =     0.00000000   -0.00000000   -0.00000001
     atom   11 type  1   force =    -0.00000000   -0.00000001   -0.00000001
     atom   12 type  1   force =     0.00000000    0.00000000    0.00000002
     atom   13 type  1   force =    -0.00000000   -0.00000000   -0.00000002
     atom   14 type  1   force =     0.00000000    0.00000001   -0.00000003
     atom   15 type  1   force =    -0.00000000   -0.00000002    0.00000001
     atom   16 type  1   force =    -0.00000000   -0.00000000    0.00000001
     atom   17 type  1   force =     0.00000000    0.00000002    0.00000003
     atom   18 type  1   force =     0.00000000   -0.00000000    0.00000003
     atom   19 type  1   force =    -0.00000001    0.00000000   -0.00000001
     atom   20 type  1   force =     0.00000000   -0.00000000   -0.00000000
     atom   21 type  1   force =    -0.00000001    0.00000000   -0.00000001
     atom   22 type  1   force =    -0.00000001    0.00000000    0.00000004
     atom   23 type  1   force =     0.00000001    0.00000000   -0.00000001
     atom   24 type  1   force =     0.00000000   -0.00000001   -0.00000001
     atom   25 type  1   force =     0.00000000   -0.00000000    0.00000003
     atom   26 type  1   force =     0.00000000    0.00000000   -0.00000002
     atom   27 type  1   force =    -0.00000000   -0.00000001   -0.00000002
     atom   28 type  1   force =    -0.00000000    0.00000000   -0.00000000
     atom   29 type  1   force =    -0.00000000    0.00000001   -0.00000000
     atom   30 type  1   force =     0.00000000   -0.00000001    0.00000003
     atom   31 type  1   force =     0.00000000   -0.00000000    0.00000002
     atom   32 type  1   force =     0.00000000   -0.00000000   -0.00000002
     atom   33 type  1   force =    -0.00000000   -0.00000001   -0.00000001
     atom   34 type  1   force =     0.00000000    0.00000000    0.00000002
     atom   35 type  1   force =    -0.00000000   -0.00000000   -0.00000002
     atom   36 type  1   force =    -0.00000000    0.00000001   -0.00000002
     atom   37 type  1   force =     0.00000000   -0.00000002    0.00000001
     atom   38 type  1   force =    -0.00000000   -0.00000000    0.00000001
     atom   39 type  1   force =    -0.00000000    0.00000002    0.00000003
     atom   40 type  1   force =     0.00000000   -0.00000000    0.00000003
     atom   41 type  1   force =    -0.00000001    0.00000000   -0.00000001
     atom   42 type  1   force =     0.00000000   -0.00000000   -0.00000001
     atom   43 type  1   force =    -0.00000000    0.00000000   -0.00000001
     atom   44 type  1   force =    -0.00000001    0.00000000    0.00000003

     Total force =     0.001107     Total SCF correction =     0.000000

     Writing all to output data dir ./Li/Lithium.save/ :
     XML data file

     General routines

     Parallel routines

     PAW routines

     Environ routines

   This run was terminated on:   9: 2:11   6Jan2025

   JOB DONE.