     Program PWSCF v.7.4 starts on  3Jan2025 at  5: 7:40

     Reading input from espresso.pwi
Warning: card &CELL ignored
Warning: card    PRESS_CONV_THR   = 0.1 ignored
Warning: card    CELL_DOFREE      = 'ALL' ignored
Warning: card / ignored
Warning: card &FCP ignored
Warning: card / ignored
Warning: card &RISM ignored
Warning: card / ignored

     Current dimensions of program PWSCF are:
     Max number of different atomic species (ntypx) = 10
     Max number of k-points (npk) =  40000
     Max angular momentum in pseudopotentials (lmaxx) =  4

     IMPORTANT: XC functional enforced from input :
     Exchange-correlation= PBE
                           (   1   4   3   4   0   0   0)
     Any further DFT definition will be discarded
     Please, verify this is what you really want

     Reading input from environ.in:
     * using ionic solvent mode
     * setting boundary derivatives method to SSCS default
     * setting electrolyte-boundary derivatives method to SSCS default

Environ Warning (1001): card EOF ignored

     K-points division:     npool     =       2
     R & G space division:  proc/nbgrp/npool/nimage =     256
     Subspace diagonalization in iterative solution of the eigenvalue problem:
     a serial algorithm will be used

     Using Slab Decomposition

     bravais-lattice index     =            8
     lattice parameter (alat)  =      18.3607  a.u.
     unit-cell volume          =   20684.8735 (a.u.)^3
     number of atoms/cell      =           44
     number of atomic types    =            1
     number of electrons       =       132.00
     number of Kohn-Sham states=           99
     kinetic-energy cutoff     =      80.0000  Ry
     charge density cutoff     =     800.0000  Ry
     scf convergence threshold =      1.0E-14
     mixing beta               =       0.2000
     number of iterations used =            8  local-TF  mixing
     Exchange-correlation= PBE
                           (   1   4   3   4   0   0   0)

                                  Environ Setup Summary

          O. Andreussi, I. Dabo and N. Marzari, J. Chem. Phys. 136, 064102 (2012)
          F. Nattino, M. Truscott, N. Marzari, and O. Andreussi, J. Chem. Phys. 150, 041722 (2019)

     in publications or presentations arising from this work.

     Parameters

     compensation onset threshold      =               0.1000E+00
     static permittivity               =                    89.90
     surface tension in input (dyn/cm) =                    37.30
     surface tension in internal units =               0.4792E-04

     Solvent Boundary

     solvent mode                      =                    ionic
     derivatives method                =                   lowmem
     electrolyte derivatives method    =                   lowmem
     numerical core for derivatives    =                      fft
     switching function adopted        =                     SCCS
     density limit for vacuum region   =               0.5000E-02
     density limit for bulk solvent    =               0.1000E-03
     soft-sphere radius mode           =                    bondi
     soft-sphere softness              =                     0.50
     alpha                             =                     1.32

     Electrostatic Setup

     electrostatic problem to solve    =                    modpb
     numerical solver adopted          =                   newton
     type of auxiliary density adopted =                     none
     numerical core for poisson        =                      fft
     adopting a nested solver scheme
     inner solver                      =                       cg
     inner core                        =                      fft
     type of pbc corrections           =                parabolic
     numerical core for corrections    =                      1da

     >>>>> Grand-Canonical SCF is activated <<<<<
     Initial Total Charge  =     0.000000 e
     Target Fermi Energy   =    -2.904000 eV
     Thr. of Fermi Energy  =     0.001000 eV
     Wave-shift of Kerker  =     0.400000 bohr^-1
     Wave-shift of Hartree =     1.500000 bohr^-1
     Mixing Rate of Fermi  =     0.050000

     celldm(1)=  18.360747  celldm(2)=   0.586302  celldm(3)=   5.699811
     celldm(4)=   0.000000  celldm(5)=   0.000000  celldm(6)=   0.000000

     crystal axes: (cart. coord. in units of alat)
               a(1) = (   1.000000   0.000000   0.000000 )
               a(2) = (   0.000000   0.586302   0.000000 )
               a(3) = (   0.000000   0.000000   5.699811 )

     reciprocal axes: (cart. coord. in units 2 pi/alat)
               b(1) = (  1.000000  0.000000  0.000000 )
               b(2) = (  0.000000  1.705606  0.000000 )
               b(3) = (  0.000000  0.000000  0.175444 )

     PseudoPot. # 1 for Li read from file:
     /work/e89/e89/ba3g18/Repos/Pseudopotentials/Pslibrary/Li.pbe-sl-kjpaw_psl.1.0.0.UPF
     MD5 check sum: 3f4d2cafebb47c6c3aa8ed472e6f074d
     Pseudo is Projector augmented-wave, Zval =  3.0
     Generated using 'atomic' code by A. Dal Corso  v.7.4
     Shape of augmentation charge: PSQ
     Using radial grid of 1017 points,  4 beta functions with:
                l(1) =   0
                l(2) =   0
                l(3) =   1
                l(4) =   1
     Q(r) pseudized with 0 coefficients

     atomic species   valence    mass     pseudopotential
     Li                3.00     6.94000     Li( 1.00)

      2 Sym. Ops. (no inversion) found

                                    s                        frac. trans.

      isym =  1     identity

 cryst.   s( 1) = (     1          0          0      )
                  (     0          1          0      )
                  (     0          0          1      )

 cart.    s( 1) = (  1.0000000  0.0000000  0.0000000 )
                  (  0.0000000  1.0000000  0.0000000 )
                  (  0.0000000  0.0000000  1.0000000 )

      isym =  2     inv. 180 deg rotation - cart. axis [1,0,0]

 cryst.   s( 2) = (    -1          0          0      )
                  (     0          1          0      )
                  (     0          0          1      )

 cart.    s( 2) = ( -1.0000000  0.0000000  0.0000000 )
                  (  0.0000000  1.0000000  0.0000000 )
                  (  0.0000000  0.0000000  1.0000000 )

     point group C_s (m)
     there are  2 classes
     the character table:

       E     s
A'     1.00  1.00
A''    1.00 -1.00

     the symmetry operations in each class and the name of the first element:

     E        1
          identity
     s        2
          inv. 180 deg rotation - cart. axis [1,0,0]

   Cartesian axes

     site n.     atom                  positions (alat units)
         1        Li     tau(   1) = (   0.5000000   0.5618724   3.6507372  )
         2        Li     tau(   2) = (   0.2499936   0.4507442   2.0490878  )
         3        Li     tau(   3) = (   0.2500015   0.1052602   2.2448329  )
         4        Li     tau(   4) = (   0.5000000   0.2252523   2.1126330  )
         5        Li     tau(   5) = (  -0.0000000   0.5103250   2.2559235  )
         6        Li     tau(   6) = (   0.5000000   0.1954453   2.4247784  )
         7        Li     tau(   7) = (   0.2500023   0.3234104   2.6569176  )
         8        Li     tau(   8) = (   0.2499992   0.5872216   2.8351222  )
         9        Li     tau(   9) = (   0.2500015   0.3788434   2.3503586  )
        10        Li     tau(  10) = (   0.2499985   0.0476525   2.5362266  )
        11        Li     tau(  11) = (  -0.0000000   0.4699670   2.5632914  )
        12        Li     tau(  12) = (   0.5000000   0.1498795   2.7345249  )
        13        Li     tau(  13) = (   0.5000000   0.4254853   2.8646647  )
        14        Li     tau(  14) = (   0.5000000   0.1029886   3.0428934  )
        15        Li     tau(  15) = (   0.2499967   0.5427349   3.1365276  )
        16        Li     tau(  16) = (   0.2500004   0.2309547   3.2750291  )
        17        Li     tau(  17) = (   0.2500022   0.2765192   2.9652846  )
        18        Li     tau(  18) = (  -0.0000000   0.3787443   3.1636120  )
        19        Li     tau(  19) = (   0.5000000   0.0475613   3.3494621  )
        20        Li     tau(  20) = (   0.5000000   0.3211676   3.4549041  )
        21        Li     tau(  21) = (   0.2499812   0.5023788   3.4438921  )
        22        Li     tau(  22) = (   0.2500852   0.2011526   3.5871733  )
        23        Li     tau(  23) = (   1.0000000   0.5620440   3.6507028  )
        24        Li     tau(  24) = (   0.7500064   0.4507442   2.0490878  )
        25        Li     tau(  25) = (   0.7499985   0.1052602   2.2448329  )
        26        Li     tau(  26) = (   1.0000000   0.2252477   2.1126364  )
        27        Li     tau(  27) = (   0.5000000   0.5103250   2.2559080  )
        28        Li     tau(  28) = (   1.0000000   0.1954494   2.4247787  )
        29        Li     tau(  29) = (   0.7499977   0.3234104   2.6569176  )
        30        Li     tau(  30) = (   0.7500008   0.5872216   2.8351222  )
        31        Li     tau(  31) = (   0.7499985   0.3788434   2.3503586  )
        32        Li     tau(  32) = (   0.7500015   0.0476525   2.5362266  )
        33        Li     tau(  33) = (   0.5000000   0.4699701   2.5632692  )
        34        Li     tau(  34) = (   1.0000000   0.1498848   2.7345216  )
        35        Li     tau(  35) = (   1.0000000   0.4254778   2.8647058  )
        36        Li     tau(  36) = (   1.0000000   0.1029929   3.0428864  )
        37        Li     tau(  37) = (   0.7500033   0.5427349   3.1365276  )
        38        Li     tau(  38) = (   0.7499996   0.2309547   3.2750291  )
        39        Li     tau(  39) = (   0.7499978   0.2765192   2.9652846  )
        40        Li     tau(  40) = (   0.5000000   0.3787534   3.1635492  )
        41        Li     tau(  41) = (   1.0000000   0.0475542   3.3494358  )
        42        Li     tau(  42) = (   1.0000000   0.3211147   3.4550445  )
        43        Li     tau(  43) = (   0.7500188   0.5023788   3.4438921  )
        44        Li     tau(  44) = (   0.7499148   0.2011526   3.5871733  )

   Crystallographic axes

     site n.     atom                  positions (cryst. coord.)
         1        Li     tau(   1) = (  0.5000000  0.9583328  0.6405015  )
         2        Li     tau(   2) = (  0.2499936  0.7687919  0.3595010  )
         3        Li     tau(   3) = (  0.2500015  0.1795324  0.3938434  )
         4        Li     tau(   4) = (  0.5000000  0.3841916  0.3706497  )
         5        Li     tau(   5) = (  0.0000000  0.8704132  0.3957892  )
         6        Li     tau(   6) = (  0.5000000  0.3333527  0.4254138  )
         7        Li     tau(   7) = (  0.2500023  0.5516106  0.4661414  )
         8        Li     tau(   8) = (  0.2499992  1.0015685  0.4974064  )
         9        Li     tau(   9) = (  0.2500015  0.6461575  0.4123573  )
        10        Li     tau(  10) = (  0.2499985  0.0812764  0.4449668  )
        11        Li     tau(  11) = (  0.0000000  0.8015784  0.4497152  )
        12        Li     tau(  12) = (  0.5000000  0.2556353  0.4797571  )
        13        Li     tau(  13) = (  0.5000000  0.7257101  0.5025894  )
[...]
     atom    7 type  1   force =    -0.00005463   -0.03303694   -4.09150892
     atom    8 type  1   force =    -0.00007031    0.02789726   -0.31284324
     atom    9 type  1   force =    -0.00002717   -0.04932973  -10.58766092
     atom   10 type  1   force =    -0.00003704    0.02666638   -6.66321652
     atom   11 type  1   force =    -0.00000001   -0.02268490   -6.10695685
     atom   12 type  1   force =    -0.00000001    0.03368592   -2.45215857
     atom   13 type  1   force =    -0.00000001   -0.02790049    0.31241082
     atom   14 type  1   force =    -0.00000001    0.03300476    4.09157704
     atom   15 type  1   force =    -0.00005043    0.02268598    6.10722403
     atom   16 type  1   force =    -0.00022996   -0.03633832    9.02300014
     atom   17 type  1   force =    -0.00007442   -0.03368343    2.45218088
     atom   18 type  1   force =     0.00000000   -0.02673723    6.66398234
     atom   19 type  1   force =    -0.00000001    0.04926845   10.58791872
     atom   20 type  1   force =    -0.00000001   -0.04407342   12.97884079
     atom   21 type  1   force =    -0.00016951   -0.01390100   12.70104714
     atom   22 type  1   force =    -0.00021258    0.06679053   15.33939886
     atom   23 type  1   force =     0.00000002   -0.02966192   16.04050795
     atom   24 type  1   force =     0.00000989    0.02964633  -16.04065753
     atom   25 type  1   force =     0.00001823    0.04405056  -12.98036985
     atom   26 type  1   force =     0.00000002   -0.06679824  -15.33936259
     atom   27 type  1   force =    -0.00000000    0.01391183  -12.70122359
     atom   28 type  1   force =     0.00000002    0.03633341   -9.02298620
     atom   29 type  1   force =     0.00005462   -0.03303692   -4.09150893
     atom   30 type  1   force =     0.00007028    0.02789726   -0.31284325
     atom   31 type  1   force =     0.00002718   -0.04932970  -10.58766092
     atom   32 type  1   force =     0.00003704    0.02666636   -6.66321653
     atom   33 type  1   force =    -0.00000000   -0.02267986   -6.10747975
     atom   34 type  1   force =     0.00000003    0.03367868   -2.45219581
     atom   35 type  1   force =     0.00000003   -0.02789255    0.31327110
     atom   36 type  1   force =     0.00000003    0.03306952    4.09144064
     atom   37 type  1   force =     0.00005043    0.02268596    6.10722403
     atom   38 type  1   force =     0.00022995   -0.03633831    9.02300013
     atom   39 type  1   force =     0.00007440   -0.03368342    2.45218089
     atom   40 type  1   force =    -0.00000001   -0.02659748    6.66243444
     atom   41 type  1   force =     0.00000004    0.04939803   10.58740620
     atom   42 type  1   force =     0.00000004   -0.04403457   12.98187834
     atom   43 type  1   force =     0.00016948   -0.01390101   12.70104713
     atom   44 type  1   force =     0.00021256    0.06679053   15.33939888
     The local contribution  to forces
     atom    1 type  1   force =     0.00000137    0.02127619  -16.16820695
     atom    2 type  1   force =     0.00001689   -0.02130812   16.16804947
     atom    3 type  1   force =     0.00002084   -0.05712351   13.00883063
     atom    4 type  1   force =     0.00000136    0.06230674   15.43962880
     atom    5 type  1   force =    -0.00000000   -0.00300208   12.72194766
     atom    6 type  1   force =     0.00000136   -0.03764338    9.03398493
     atom    7 type  1   force =     0.00005848    0.03584153    4.09963393
     atom    8 type  1   force =     0.00007206   -0.03110229    0.30964462
     atom    9 type  1   force =     0.00003066    0.05359134   10.60822998
     atom   10 type  1   force =     0.00003985   -0.03035961    6.67019592
     atom   11 type  1   force =     0.00000000    0.02668401    6.11743591
     atom   12 type  1   force =     0.00000136   -0.03565130    2.45287835
     atom   13 type  1   force =     0.00000136    0.03110525   -0.30920955
     atom   14 type  1   force =     0.00000136   -0.03581088   -4.09970965
     atom   15 type  1   force =     0.00004968   -0.02668581   -6.11770615
     atom   16 type  1   force =     0.00024174    0.03765056   -9.03398039
     atom   17 type  1   force =     0.00007874    0.03564767   -2.45290406
     atom   18 type  1   force =     0.00000000    0.03043269   -6.67096318
     atom   19 type  1   force =     0.00000136   -0.05352898  -10.60848626
     atom   20 type  1   force =     0.00000136    0.05714980  -13.00727929
     atom   21 type  1   force =     0.00017661    0.00299993  -12.72213504
     atom   22 type  1   force =     0.00021237   -0.06229702  -15.43960349
     atom   23 type  1   force =     0.00000274    0.02132840  -16.16789071
     atom   24 type  1   force =    -0.00001415   -0.02130812   16.16804947
     atom   25 type  1   force =    -0.00001812   -0.05712351   13.00883063
     atom   26 type  1   force =     0.00000273    0.06230467   15.43956935
     atom   27 type  1   force =     0.00000135   -0.00301094   12.72231220
     atom   28 type  1   force =     0.00000272   -0.03764584    9.03396753
     atom   29 type  1   force =    -0.00005577    0.03584153    4.09963393
     atom   30 type  1   force =    -0.00006934   -0.03110229    0.30964462
     atom   31 type  1   force =    -0.00002794    0.05359134   10.60822998
     atom   32 type  1   force =    -0.00003712   -0.03035961    6.67019592
     atom   33 type  1   force =     0.00000136    0.02668010    6.11796319
     atom   34 type  1   force =     0.00000272   -0.03564173    2.45292040
     atom   35 type  1   force =     0.00000272    0.03109794   -0.31007690
     atom   36 type  1   force =     0.00000272   -0.03587241   -4.09955992
     atom   37 type  1   force =    -0.00004696   -0.02668581   -6.11770615
     atom   38 type  1   force =    -0.00023902    0.03765056   -9.03398039
     atom   39 type  1   force =    -0.00007602    0.03564767   -2.45290406
     atom   40 type  1   force =     0.00000136    0.03028862   -6.66941413
     atom   41 type  1   force =     0.00000272   -0.05366071  -10.60797901
     atom   42 type  1   force =     0.00000272    0.05710478  -13.01036295
     atom   43 type  1   force =    -0.00017390    0.00299993  -12.72213504
     atom   44 type  1   force =    -0.00020965   -0.06229702  -15.43960349
     The core correction contribution to forces
     atom    1 type  1   force =     0.00000000    0.00000000    0.00000000
     atom    2 type  1   force =     0.00000000    0.00000000    0.00000000
     atom    3 type  1   force =     0.00000000    0.00000000    0.00000000
     atom    4 type  1   force =     0.00000000    0.00000000    0.00000000
     atom    5 type  1   force =     0.00000000    0.00000000    0.00000000
     atom    6 type  1   force =     0.00000000    0.00000000    0.00000000
     atom    7 type  1   force =     0.00000000    0.00000000    0.00000000
     atom    8 type  1   force =     0.00000000    0.00000000    0.00000000
     atom    9 type  1   force =     0.00000000    0.00000000    0.00000000
     atom   10 type  1   force =     0.00000000    0.00000000    0.00000000
     atom   11 type  1   force =     0.00000000    0.00000000    0.00000000
     atom   12 type  1   force =     0.00000000    0.00000000    0.00000000
     atom   13 type  1   force =     0.00000000    0.00000000    0.00000000
     atom   14 type  1   force =     0.00000000    0.00000000    0.00000000
     atom   15 type  1   force =     0.00000000    0.00000000    0.00000000
     atom   16 type  1   force =     0.00000000    0.00000000    0.00000000
     atom   17 type  1   force =     0.00000000    0.00000000    0.00000000
     atom   18 type  1   force =     0.00000000    0.00000000    0.00000000
     atom   19 type  1   force =     0.00000000    0.00000000    0.00000000
     atom   20 type  1   force =     0.00000000    0.00000000    0.00000000
     atom   21 type  1   force =     0.00000000    0.00000000    0.00000000
     atom   22 type  1   force =     0.00000000    0.00000000    0.00000000
     atom   23 type  1   force =     0.00000000    0.00000000    0.00000000
     atom   24 type  1   force =     0.00000000    0.00000000    0.00000000
     atom   25 type  1   force =     0.00000000    0.00000000    0.00000000
     atom   26 type  1   force =     0.00000000    0.00000000    0.00000000
     atom   27 type  1   force =     0.00000000    0.00000000    0.00000000
     atom   28 type  1   force =     0.00000000    0.00000000    0.00000000
     atom   29 type  1   force =     0.00000000    0.00000000    0.00000000
     atom   30 type  1   force =     0.00000000    0.00000000    0.00000000
     atom   31 type  1   force =     0.00000000    0.00000000    0.00000000
     atom   32 type  1   force =     0.00000000    0.00000000    0.00000000
     atom   33 type  1   force =     0.00000000    0.00000000    0.00000000
     atom   34 type  1   force =     0.00000000    0.00000000    0.00000000
     atom   35 type  1   force =     0.00000000    0.00000000    0.00000000
     atom   36 type  1   force =     0.00000000    0.00000000    0.00000000
     atom   37 type  1   force =     0.00000000    0.00000000    0.00000000
     atom   38 type  1   force =     0.00000000    0.00000000    0.00000000
     atom   39 type  1   force =     0.00000000    0.00000000    0.00000000
     atom   40 type  1   force =     0.00000000    0.00000000    0.00000000
     atom   41 type  1   force =     0.00000000    0.00000000    0.00000000
     atom   42 type  1   force =     0.00000000    0.00000000    0.00000000
     atom   43 type  1   force =     0.00000000    0.00000000    0.00000000
     atom   44 type  1   force =     0.00000000    0.00000000    0.00000000
     The Hubbard contrib.    to forces
     atom    1 type  1   force =     0.00000000    0.00000000    0.00000000
     atom    2 type  1   force =     0.00000000    0.00000000    0.00000000
     atom    3 type  1   force =     0.00000000    0.00000000    0.00000000
     atom    4 type  1   force =     0.00000000    0.00000000    0.00000000
     atom    5 type  1   force =     0.00000000    0.00000000    0.00000000
     atom    6 type  1   force =     0.00000000    0.00000000    0.00000000
     atom    7 type  1   force =     0.00000000    0.00000000    0.00000000
     atom    8 type  1   force =     0.00000000    0.00000000    0.00000000
     atom    9 type  1   force =     0.00000000    0.00000000    0.00000000
     atom   10 type  1   force =     0.00000000    0.00000000    0.00000000
     atom   11 type  1   force =     0.00000000    0.00000000    0.00000000
     atom   12 type  1   force =     0.00000000    0.00000000    0.00000000
     atom   13 type  1   force =     0.00000000    0.00000000    0.00000000
     atom   14 type  1   force =     0.00000000    0.00000000    0.00000000
     atom   15 type  1   force =     0.00000000    0.00000000    0.00000000
     atom   16 type  1   force =     0.00000000    0.00000000    0.00000000
     atom   17 type  1   force =     0.00000000    0.00000000    0.00000000
     atom   18 type  1   force =     0.00000000    0.00000000    0.00000000
     atom   19 type  1   force =     0.00000000    0.00000000    0.00000000
     atom   20 type  1   force =     0.00000000    0.00000000    0.00000000
     atom   21 type  1   force =     0.00000000    0.00000000    0.00000000
     atom   22 type  1   force =     0.00000000    0.00000000    0.00000000
     atom   23 type  1   force =     0.00000000    0.00000000    0.00000000
     atom   24 type  1   force =     0.00000000    0.00000000    0.00000000
     atom   25 type  1   force =     0.00000000    0.00000000    0.00000000
     atom   26 type  1   force =     0.00000000    0.00000000    0.00000000
     atom   27 type  1   force =     0.00000000    0.00000000    0.00000000
     atom   28 type  1   force =     0.00000000    0.00000000    0.00000000
     atom   29 type  1   force =     0.00000000    0.00000000    0.00000000
     atom   30 type  1   force =     0.00000000    0.00000000    0.00000000
     atom   31 type  1   force =     0.00000000    0.00000000    0.00000000
     atom   32 type  1   force =     0.00000000    0.00000000    0.00000000
     atom   33 type  1   force =     0.00000000    0.00000000    0.00000000
     atom   34 type  1   force =     0.00000000    0.00000000    0.00000000
     atom   35 type  1   force =     0.00000000    0.00000000    0.00000000
     atom   36 type  1   force =     0.00000000    0.00000000    0.00000000
     atom   37 type  1   force =     0.00000000    0.00000000    0.00000000
     atom   38 type  1   force =     0.00000000    0.00000000    0.00000000
     atom   39 type  1   force =     0.00000000    0.00000000    0.00000000
     atom   40 type  1   force =     0.00000000    0.00000000    0.00000000
     atom   41 type  1   force =     0.00000000    0.00000000    0.00000000
     atom   42 type  1   force =     0.00000000    0.00000000    0.00000000
     atom   43 type  1   force =     0.00000000    0.00000000    0.00000000
     atom   44 type  1   force =     0.00000000    0.00000000    0.00000000
     The SCF correction term to forces
     atom    1 type  1   force =    -0.00000000    0.00000002   -0.00000001
     atom    2 type  1   force =    -0.00000001    0.00000002   -0.00000005
     atom    3 type  1   force =    -0.00000001   -0.00000001   -0.00000011
     atom    4 type  1   force =     0.00000000    0.00000002   -0.00000006
     atom    5 type  1   force =    -0.00000000    0.00000000   -0.00000009
     atom    6 type  1   force =    -0.00000000   -0.00000000   -0.00000011
     atom    7 type  1   force =    -0.00000001   -0.00000000   -0.00000007
     atom    8 type  1   force =    -0.00000000    0.00000001   -0.00000002
     atom    9 type  1   force =    -0.00000000    0.00000001   -0.00000008
     atom   10 type  1   force =    -0.00000000    0.00000000   -0.00000010
     atom   11 type  1   force =    -0.00000000    0.00000000   -0.00000011
     atom   12 type  1   force =    -0.00000000    0.00000000   -0.00000006
     atom   13 type  1   force =     0.00000000   -0.00000001    0.00000001
     atom   14 type  1   force =    -0.00000000   -0.00000000    0.00000005
     atom   15 type  1   force =    -0.00000001   -0.00000001    0.00000007
     atom   16 type  1   force =     0.00000000    0.00000001    0.00000010
     atom   17 type  1   force =    -0.00000000   -0.00000001    0.00000005
     atom   18 type  1   force =    -0.00000000    0.00000001    0.00000010
     atom   19 type  1   force =    -0.00000000   -0.00000001    0.00000008
     atom   20 type  1   force =     0.00000000   -0.00000000    0.00000008
     atom   21 type  1   force =    -0.00000000    0.00000001    0.00000008
     atom   22 type  1   force =     0.00000003    0.00000001    0.00000012
     atom   23 type  1   force =     0.00000000    0.00000000   -0.00000010
     atom   24 type  1   force =     0.00000001    0.00000002   -0.00000005
     atom   25 type  1   force =     0.00000001   -0.00000001   -0.00000011
     atom   26 type  1   force =    -0.00000000    0.00000006   -0.00000010
     atom   27 type  1   force =     0.00000000    0.00000001   -0.00000007
     atom   28 type  1   force =    -0.00000000    0.00000000   -0.00000010
     atom   29 type  1   force =     0.00000001   -0.00000000   -0.00000007
     atom   30 type  1   force =     0.00000000    0.00000001   -0.00000002
     atom   31 type  1   force =     0.00000000    0.00000001   -0.00000008
     atom   32 type  1   force =     0.00000000    0.00000000   -0.00000010
     atom   33 type  1   force =    -0.00000000    0.00000001   -0.00000012
     atom   34 type  1   force =    -0.00000000    0.00000001   -0.00000006
     atom   35 type  1   force =     0.00000000   -0.00000001    0.00000000
     atom   36 type  1   force =    -0.00000000    0.00000000    0.00000006
     atom   37 type  1   force =     0.00000001   -0.00000001    0.00000007
     atom   38 type  1   force =    -0.00000000    0.00000001    0.00000010
     atom   39 type  1   force =     0.00000000   -0.00000001    0.00000005
     atom   40 type  1   force =    -0.00000000    0.00000001    0.00000009
     atom   41 type  1   force =     0.00000000   -0.00000001    0.00000009
     atom   42 type  1   force =     0.00000000    0.00000002    0.00000007
     atom   43 type  1   force =     0.00000000    0.00000001    0.00000008
     atom   44 type  1   force =    -0.00000003    0.00000001    0.00000012

     Total force =     0.001134     Total SCF correction =     0.000001

     Writing all to output data dir ./Li/Lithium.save/ :
     XML data file

     General routines

     Parallel routines

     PAW routines

     Environ routines

   This run was terminated on:   5:40:17   3Jan2025

   JOB DONE.