     Program PWSCF v.7.4 starts on  4Jan2025 at 23:49:42
        Git branch: develop
        Last git commit: e877ff360aceba4b8d76ffc2fb1c70545fc5dd57
        Last git commit date: Sat Jan 4 12:56:15 2025 +0000
        Last git commit subject: Merge branch 'orthoU' into 'develop'

     Reading input from espresso.pwi
Warning: card &CELL ignored
Warning: card    PRESS_CONV_THR   = 0.1 ignored
Warning: card    CELL_DOFREE      = 'ALL' ignored
Warning: card / ignored
Warning: card &FCP ignored
Warning: card / ignored
Warning: card &RISM ignored
Warning: card / ignored

     Current dimensions of program PWSCF are:
     Max number of different atomic species (ntypx) = 10
     Max number of k-points (npk) =  40000
     Max angular momentum in pseudopotentials (lmaxx) =  4

     IMPORTANT: XC functional enforced from input :
     Exchange-correlation= PBE
                           (   1   4   3   4   0   0   0)
     Any further DFT definition will be discarded
     Please, verify this is what you really want

     Reading input from environ.in:
     * using ionic solvent mode
     * setting boundary derivatives method to SSCS default
     * setting electrolyte-boundary derivatives method to SSCS default

Environ Warning (1001): card EOF ignored

     K-points division:     npool     =       2
     R & G space division:  proc/nbgrp/npool/nimage =     180
     Subspace diagonalization in iterative solution of the eigenvalue problem:
     a serial algorithm will be used

     Using Slab Decomposition

     bravais-lattice index     =            8
     lattice parameter (alat)  =      11.2436  a.u.
     unit-cell volume          =   18353.5537 (a.u.)^3
     number of atoms/cell      =           24
     number of atomic types    =            1
     number of electrons       =        72.00
     number of Kohn-Sham states=           54
     kinetic-energy cutoff     =      80.0000  Ry
     charge density cutoff     =     800.0000  Ry
     scf convergence threshold =      1.0E-06
     mixing beta               =       0.2000
     number of iterations used =            8  local-TF  mixing
     energy convergence thresh.=      1.0E-05
     force convergence thresh. =      3.9E-04
     Exchange-correlation= PBE
                           (   1   4   3   4   0   0   0)
     nstep                     =          999

                                  Environ Setup Summary

          O. Andreussi, I. Dabo and N. Marzari, J. Chem. Phys. 136, 064102 (2012)
          F. Nattino, M. Truscott, N. Marzari, and O. Andreussi, J. Chem. Phys. 150, 041722 (2019)

     in publications or presentations arising from this work.

     Parameters

     compensation onset threshold      =               0.1000E+00
     static permittivity               =                    89.90
     surface tension in input (dyn/cm) =                    37.30
     surface tension in internal units =               0.4792E-04

     Solvent Boundary

     solvent mode                      =                    ionic
     derivatives method                =                   lowmem
     electrolyte derivatives method    =                   lowmem
     numerical core for derivatives    =                      fft
     switching function adopted        =                     SCCS
     density limit for vacuum region   =               0.5000E-02
     density limit for bulk solvent    =               0.1000E-03
     soft-sphere radius mode           =                    bondi
     soft-sphere softness              =                     0.50
     alpha                             =                     1.32

     Electrostatic Setup

     electrostatic problem to solve    =                    modpb
     numerical solver adopted          =                   newton
     type of auxiliary density adopted =                     none
     numerical core for poisson        =                      fft
     adopting a nested solver scheme
     inner solver                      =                       cg
     inner core                        =                      fft
     type of pbc corrections           =                parabolic
     numerical core for corrections    =                      1da

     >>>>> Grand-Canonical SCF is activated <<<<<
     Initial Total Charge  =     0.000000 e
     Target Fermi Energy   =    -3.904000 eV
     Thr. of Fermi Energy  =     0.001000 eV
     Wave-shift of Kerker  =     0.400000 bohr^-1
     Wave-shift of Hartree =     1.500000 bohr^-1
     Mixing Rate of Fermi  =     0.050000

     celldm(1)=  11.243615  celldm(2)=   1.632993  celldm(3)=   7.907113
     celldm(4)=   0.000000  celldm(5)=   0.000000  celldm(6)=   0.000000

     crystal axes: (cart. coord. in units of alat)
               a(1) = (   1.000000   0.000000   0.000000 )
               a(2) = (   0.000000   1.632993   0.000000 )
               a(3) = (   0.000000   0.000000   7.907113 )

     reciprocal axes: (cart. coord. in units 2 pi/alat)
               b(1) = (  1.000000  0.000000  0.000000 )
               b(2) = (  0.000000  0.612372  0.000000 )
               b(3) = (  0.000000  0.000000  0.126468 )

     PseudoPot. # 1 for Li read from file:
     /home/mmm1182/Repos/Pseudopotentials/pslibrary/Li.pbe-sl-kjpaw_psl.1.0.0.UPF
     MD5 check sum: f40bb4162937df3f7c561f1969c76545
     Pseudo is Projector augmented-wave, Zval =  3.0
     Generated using 'atomic' code by A. Dal Corso  v.7.3.1
     Shape of augmentation charge: PSQ
     Using radial grid of 1017 points,  4 beta functions with:
                l(1) =   0
                l(2) =   0
                l(3) =   1
                l(4) =   1
     Q(r) pseudized with 0 coefficients

     atomic species   valence    mass     pseudopotential
     Li                3.00     6.94000     Li( 1.00)

      2 Sym. Ops. (no inversion) found

                                    s                        frac. trans.

      isym =  1     identity

 cryst.   s( 1) = (     1          0          0      )
                  (     0          1          0      )
                  (     0          0          1      )

 cart.    s( 1) = (  1.0000000  0.0000000  0.0000000 )
                  (  0.0000000  1.0000000  0.0000000 )
                  (  0.0000000  0.0000000  1.0000000 )

      isym =  2     inv. 180 deg rotation - cart. axis [0,1,0]

 cryst.   s( 2) = (     1          0          0      )
                  (     0         -1          0      )
                  (     0          0          1      )

 cart.    s( 2) = (  1.0000000  0.0000000  0.0000000 )
                  (  0.0000000 -1.0000000  0.0000000 )
                  (  0.0000000  0.0000000  1.0000000 )

     point group C_s (m)
     there are  2 classes
     the character table:

       E     s
A'     1.00  1.00
A''    1.00 -1.00

     the symmetry operations in each class and the name of the first element:

     E        1
          identity
     s        2
          inv. 180 deg rotation - cart. axis [0,1,0]

   Cartesian axes

     site n.     atom                  positions (alat units)
         1        Li     tau(   1) = (   0.5237414   0.8164966   4.5569018  )
         2        Li     tau(   2) = (   0.1429479   0.4082007   3.3502763  )
         3        Li     tau(   3) = (   0.3363564   0.8164966   3.6206637  )
         4        Li     tau(   4) = (   0.5238298   0.4082942   3.8172566  )
         5        Li     tau(   5) = (   0.1428529   0.8164966   4.0897289  )
         6        Li     tau(   6) = (   0.3302651   0.4082554   4.2865333  )
         7        Li     tau(   7) = (   0.5237542   1.6329931   4.5568809  )
         8        Li     tau(   8) = (   0.1429479   1.2247925   3.3502763  )
         9        Li     tau(   9) = (   0.3364002   1.6329931   3.6204693  )
        10        Li     tau(  10) = (   0.5238298   1.2246991   3.8172566  )
        11        Li     tau(  11) = (   0.1428625   1.6329931   4.0898723  )
        12        Li     tau(  12) = (   0.3302651   1.2247378   4.2865333  )
        13        Li     tau(  13) = (   1.0236463   0.8164966   4.5568908  )
        14        Li     tau(  14) = (   0.6429927   0.4081914   3.3502743  )
        15        Li     tau(  15) = (   0.8363757   0.8164966   3.6206497  )
        16        Li     tau(  16) = (   1.0238407   0.4083023   3.8172659  )
        17        Li     tau(  17) = (   0.6428349   0.8164966   4.0897445  )
        18        Li     tau(  18) = (   0.8303328   0.4082636   4.2865604  )
        19        Li     tau(  19) = (   1.0236415   1.6329931   4.5568741  )
        20        Li     tau(  20) = (   0.6429927   1.2248019   3.3502743  )
        21        Li     tau(  21) = (   0.8363058   1.6329931   3.6204710  )
        22        Li     tau(  22) = (   1.0238407   1.2246909   3.8172659  )
        23        Li     tau(  23) = (   0.6428107   1.6329931   4.0898374  )
        24        Li     tau(  24) = (   0.8303328   1.2247297   4.2865604  )

   Crystallographic axes

     site n.     atom                  positions (cryst. coord.)
         1        Li     tau(   1) = (  0.5237414  0.5000001  0.5763041  )
         2        Li     tau(   2) = (  0.1429479  0.2499709  0.4237041  )
         3        Li     tau(   3) = (  0.3363564  0.5000001  0.4578996  )
         4        Li     tau(   4) = (  0.5238298  0.2500281  0.4827624  )
         5        Li     tau(   5) = (  0.1428529  0.5000001  0.5172215  )
         6        Li     tau(   6) = (  0.3302651  0.2500044  0.5421110  )
         7        Li     tau(   7) = (  0.5237542  1.0000001  0.5763015  )
         8        Li     tau(   8) = (  0.1429479  0.7500292  0.4237041  )
         9        Li     tau(   9) = (  0.3364002  1.0000001  0.4578750  )
        10        Li     tau(  10) = (  0.5238298  0.7499720  0.4827624  )
        11        Li     tau(  11) = (  0.1428625  1.0000001  0.5172396  )
        12        Li     tau(  12) = (  0.3302651  0.7499958  0.5421111  )
        13        Li     tau(  13) = (  1.0236463  0.5000001  0.5763027  )
        14        Li     tau(  14) = (  0.6429927  0.2499652  0.4237039  )
        15        Li     tau(  15) = (  0.8363757  0.5000001  0.4578978  )
        16        Li     tau(  16) = (  1.0238407  0.2500331  0.4827635  )
        17        Li     tau(  17) = (  0.6428349  0.5000001  0.5172235  )
        18        Li     tau(  18) = (  0.8303328  0.2500094  0.5421145  )
        19        Li     tau(  19) = (  1.0236415  1.0000001  0.5763006  )
        20        Li     tau(  20) = (  0.6429927  0.7500350  0.4237039  )
        21        Li     tau(  21) = (  0.8363058  1.0000001  0.4578752  )
        22        Li     tau(  22) = (  1.0238407  0.7499671  0.4827635  )
        23        Li     tau(  23) = (  0.6428107  1.0000001  0.5172352  )
        24        Li     tau(  24) = (  0.8303328  0.7499908  0.5421145  )

     number of k points=    24  Marzari-Vanderbilt smearing, width (Ry)=  0.0100
                       cart. coord. in units 2pi/alat
        k(    1) = (   0.0000000   0.0000000   0.0000000), wk =   0.0259740
        k(    2) = (   0.0000000   0.0874818   0.0000000), wk =   0.0519481
        k(    3) = (   0.0000000   0.1749636   0.0000000), wk =   0.0519481
[...]
     atom    8 type  1   force =    -0.00008875    0.00000597   -0.00419549
     atom    9 type  1   force =     0.00016461   -0.00000002   -0.03914698
     atom   10 type  1   force =    -0.00006039    0.00000432   -0.01377851
     atom   11 type  1   force =     0.00005977    0.00000000    0.01370252
     atom   12 type  1   force =    -0.00016132    0.00000304    0.03906955
     atom   13 type  1   force =     0.00006924    0.00000009    0.00415800
     atom   14 type  1   force =    -0.00007670   -0.00001106   -0.00418740
     atom   15 type  1   force =     0.00016319   -0.00000003   -0.03913490
     atom   16 type  1   force =    -0.00006105   -0.00000276   -0.01378008
     atom   17 type  1   force =     0.00006237    0.00000001    0.01371552
     atom   18 type  1   force =    -0.00015866   -0.00000253    0.03907639
     atom   19 type  1   force =     0.00006781    0.00000007    0.00414238
     atom   20 type  1   force =    -0.00007671    0.00001123   -0.00418739
     atom   21 type  1   force =     0.00015539   -0.00000002   -0.03914956
     atom   22 type  1   force =    -0.00006105    0.00000277   -0.01378008
     atom   23 type  1   force =     0.00006160    0.00000000    0.01370871
     atom   24 type  1   force =    -0.00015866    0.00000249    0.03907640

     Forces acting on atoms (cartesian axes, Ry/au):

     atom    1 type  1   force =     0.00036145    0.00000000   -0.00017858
     atom    2 type  1   force =    -0.00032130    0.00000060    0.00020466
     atom    3 type  1   force =     0.00011304    0.00000000    0.00028432
     atom    4 type  1   force =     0.00012313   -0.00000032   -0.00001637
     atom    5 type  1   force =    -0.00010500    0.00000000   -0.00001626
     atom    6 type  1   force =    -0.00016217   -0.00000707   -0.00029553
     atom    7 type  1   force =     0.00037853    0.00000000   -0.00019151
     atom    8 type  1   force =    -0.00032130   -0.00000060    0.00020466
     atom    9 type  1   force =     0.00016069    0.00000000    0.00026734
     atom   10 type  1   force =     0.00012313    0.00000032   -0.00001637
     atom   11 type  1   force =    -0.00009804    0.00000000    0.00004721
     atom   12 type  1   force =    -0.00016217    0.00000707   -0.00029553
     atom   13 type  1   force =     0.00022536    0.00000000   -0.00018181
     atom   14 type  1   force =    -0.00026913   -0.00000388    0.00020969
     atom   15 type  1   force =     0.00012157    0.00000000    0.00027843
     atom   16 type  1   force =     0.00014178    0.00002837   -0.00000486
     atom   17 type  1   force =    -0.00015160    0.00000000   -0.00001611
     atom   18 type  1   force =    -0.00007769   -0.00000358   -0.00026881
     atom   19 type  1   force =     0.00021426    0.00000000   -0.00020481
     atom   20 type  1   force =    -0.00026913    0.00000388    0.00020969
     atom   21 type  1   force =     0.00007018    0.00000000    0.00024939
     atom   22 type  1   force =     0.00014178   -0.00002837   -0.00000486
     atom   23 type  1   force =    -0.00015971    0.00000000    0.00000482
     atom   24 type  1   force =    -0.00007769    0.00000358   -0.00026881
     The non-local contrib.  to forces
     atom    1 type  1   force =     0.00035285    0.00000000    0.10421785
     atom    2 type  1   force =    -0.00032557    0.00000255   -0.10419725
     atom    3 type  1   force =     0.00072215    0.00000000   -0.03385812
     atom    4 type  1   force =    -0.00000914   -0.00000014    0.00330320
     atom    5 type  1   force =     0.00000142    0.00000000   -0.00334581
     atom    6 type  1   force =    -0.00075898   -0.00001580    0.03386684
     atom    7 type  1   force =     0.00034974    0.00000000    0.10420309
     atom    8 type  1   force =    -0.00032557   -0.00000255   -0.10419725
     atom    9 type  1   force =     0.00079079    0.00000000   -0.03391888
     atom   10 type  1   force =    -0.00000914    0.00000014    0.00330320
     atom   11 type  1   force =     0.00001907    0.00000000   -0.00326762
     atom   12 type  1   force =    -0.00075898    0.00001580    0.03386684
     atom   13 type  1   force =     0.00026375    0.00000000    0.10420199
     atom   14 type  1   force =    -0.00028632   -0.00002308   -0.10418884
     atom   15 type  1   force =     0.00075056    0.00000000   -0.03388242
     atom   16 type  1   force =     0.00001240    0.00003045    0.00332858
     atom   17 type  1   force =    -0.00001832    0.00000000   -0.00334648
     atom   18 type  1   force =    -0.00070552   -0.00001473    0.03391439
     atom   19 type  1   force =     0.00025993    0.00000000    0.10418375
     atom   20 type  1   force =    -0.00028632    0.00002308   -0.10418884
     atom   21 type  1   force =     0.00068568    0.00000000   -0.03394515
     atom   22 type  1   force =     0.00001240   -0.00003045    0.00332858
     atom   23 type  1   force =    -0.00003430    0.00000000   -0.00331493
     atom   24 type  1   force =    -0.00070552    0.00001473    0.03391439
     The ionic contribution  to forces
     atom    1 type  1   force =     0.00062952   -0.00000002    8.56551114
     atom    2 type  1   force =    -0.00004400   -0.00002845   -8.56526691
     atom    3 type  1   force =    -0.00079975    0.00000001   -5.14169424
     atom    4 type  1   force =    -0.00323095    0.00004543   -2.10311892
     atom    5 type  1   force =     0.00324063   -0.00000002    2.10287785
     atom    6 type  1   force =    -0.00002366   -0.00024750    5.14231623
     atom    7 type  1   force =     0.00079651    0.00000003    8.56509200
     atom    8 type  1   force =    -0.00004401    0.00002844   -8.56526685
     atom    9 type  1   force =     0.00026002    0.00000002   -5.14241142
     atom   10 type  1   force =    -0.00323095   -0.00004545   -2.10311884
     atom   11 type  1   force =     0.00346824    0.00000004    2.10249417
     atom   12 type  1   force =    -0.00002366    0.00024748    5.14231642
     atom   13 type  1   force =    -0.00128558   -0.00000002    8.56523024
     atom   14 type  1   force =     0.00066256   -0.00024853   -8.56532256
     atom   15 type  1   force =    -0.00042611    0.00000001   -5.14184418
     atom   16 type  1   force =    -0.00281556    0.00065885   -2.10310727
     atom   17 type  1   force =     0.00288954   -0.00000002    2.10326571
     atom   18 type  1   force =     0.00119552   -0.00017701    5.14252194
     atom   19 type  1   force =    -0.00139774    0.00000003    8.56519416
     atom   20 type  1   force =     0.00066257    0.00024852   -8.56532249
     atom   21 type  1   force =    -0.00151656    0.00000001   -5.14253693
     atom   22 type  1   force =    -0.00281555   -0.00065887   -2.10310719
     atom   23 type  1   force =     0.00265345    0.00000004    2.10277578
     atom   24 type  1   force =     0.00119553    0.00017699    5.14252214
     The local contribution  to forces
     atom    1 type  1   force =    -0.00071645   -0.00004252   -8.67405693
     atom    2 type  1   force =     0.00013529   -0.00001310    8.67386445
     atom    3 type  1   force =     0.00003375   -0.00004368    5.21496591
     atom    4 type  1   force =     0.00341842   -0.00008570    2.11357833
     atom    5 type  1   force =    -0.00340620   -0.00004495   -2.11325986
     atom    6 type  1   force =     0.00077970    0.00021593   -5.21554394
     atom    7 type  1   force =    -0.00086496   -0.00004393   -8.67364279
     atom    8 type  1   force =     0.00013761   -0.00007781    8.67386087
     atom    9 type  1   force =    -0.00105465   -0.00004449    5.21574255
     atom   10 type  1   force =     0.00342888   -0.00000304    2.11357591
     atom   11 type  1   force =    -0.00364518   -0.00004170   -2.11288114
     atom   12 type  1   force =     0.00078377   -0.00030270   -5.21554880
     atom   13 type  1   force =     0.00117860   -0.00004252   -8.67377034
     atom   14 type  1   force =    -0.00057070    0.00023342    8.67390901
     atom   15 type  1   force =    -0.00036604   -0.00004368    5.21513806
     atom   16 type  1   force =     0.00300081   -0.00070255    2.11355443
     atom   17 type  1   force =    -0.00308524   -0.00004495   -2.11365026
     atom   18 type  1   force =    -0.00041113    0.00014731   -5.21577741
     atom   19 type  1   force =     0.00128482   -0.00004393   -8.67372338
     atom   20 type  1   force =    -0.00056779   -0.00032433    8.67390484
     atom   21 type  1   force =     0.00074571   -0.00004449    5.21587907
     atom   22 type  1   force =     0.00301127    0.00061381    2.11355201
     atom   23 type  1   force =    -0.00284052   -0.00004170   -2.11316409
     atom   24 type  1   force =    -0.00040706   -0.00023408   -5.21578228
     The core correction contribution to forces
     atom    1 type  1   force =     0.00000000    0.00000000    0.00000000
     atom    2 type  1   force =     0.00000000    0.00000000    0.00000000
     atom    3 type  1   force =     0.00000000    0.00000000    0.00000000
     atom    4 type  1   force =     0.00000000    0.00000000    0.00000000
     atom    5 type  1   force =     0.00000000    0.00000000    0.00000000
     atom    6 type  1   force =     0.00000000    0.00000000    0.00000000
     atom    7 type  1   force =     0.00000000    0.00000000    0.00000000
     atom    8 type  1   force =     0.00000000    0.00000000    0.00000000
     atom    9 type  1   force =     0.00000000    0.00000000    0.00000000
     atom   10 type  1   force =     0.00000000    0.00000000    0.00000000
     atom   11 type  1   force =     0.00000000    0.00000000    0.00000000
     atom   12 type  1   force =     0.00000000    0.00000000    0.00000000
     atom   13 type  1   force =     0.00000000    0.00000000    0.00000000
     atom   14 type  1   force =     0.00000000    0.00000000    0.00000000
     atom   15 type  1   force =     0.00000000    0.00000000    0.00000000
     atom   16 type  1   force =     0.00000000    0.00000000    0.00000000
     atom   17 type  1   force =     0.00000000    0.00000000    0.00000000
     atom   18 type  1   force =     0.00000000    0.00000000    0.00000000
     atom   19 type  1   force =     0.00000000    0.00000000    0.00000000
     atom   20 type  1   force =     0.00000000    0.00000000    0.00000000
     atom   21 type  1   force =     0.00000000    0.00000000    0.00000000
     atom   22 type  1   force =     0.00000000    0.00000000    0.00000000
     atom   23 type  1   force =     0.00000000    0.00000000    0.00000000
     atom   24 type  1   force =     0.00000000    0.00000000    0.00000000
     The Hubbard contrib.    to forces
     atom    1 type  1   force =     0.00000000    0.00000000    0.00000000
     atom    2 type  1   force =     0.00000000    0.00000000    0.00000000
     atom    3 type  1   force =     0.00000000    0.00000000    0.00000000
     atom    4 type  1   force =     0.00000000    0.00000000    0.00000000
     atom    5 type  1   force =     0.00000000    0.00000000    0.00000000
     atom    6 type  1   force =     0.00000000    0.00000000    0.00000000
     atom    7 type  1   force =     0.00000000    0.00000000    0.00000000
     atom    8 type  1   force =     0.00000000    0.00000000    0.00000000
     atom    9 type  1   force =     0.00000000    0.00000000    0.00000000
     atom   10 type  1   force =     0.00000000    0.00000000    0.00000000
     atom   11 type  1   force =     0.00000000    0.00000000    0.00000000
     atom   12 type  1   force =     0.00000000    0.00000000    0.00000000
     atom   13 type  1   force =     0.00000000    0.00000000    0.00000000
     atom   14 type  1   force =     0.00000000    0.00000000    0.00000000
     atom   15 type  1   force =     0.00000000    0.00000000    0.00000000
     atom   16 type  1   force =     0.00000000    0.00000000    0.00000000
     atom   17 type  1   force =     0.00000000    0.00000000    0.00000000
     atom   18 type  1   force =     0.00000000    0.00000000    0.00000000
     atom   19 type  1   force =     0.00000000    0.00000000    0.00000000
     atom   20 type  1   force =     0.00000000    0.00000000    0.00000000
     atom   21 type  1   force =     0.00000000    0.00000000    0.00000000
     atom   22 type  1   force =     0.00000000    0.00000000    0.00000000
     atom   23 type  1   force =     0.00000000    0.00000000    0.00000000
     atom   24 type  1   force =     0.00000000    0.00000000    0.00000000
     The SCF correction term to forces
     atom    1 type  1   force =    -0.00000060   -0.00000000   -0.00000159
     atom    2 type  1   force =     0.00000057    0.00000002    0.00000161
     atom    3 type  1   force =    -0.00000002   -0.00000000    0.00000178
     atom    4 type  1   force =    -0.00000005    0.00000002    0.00000068
     atom    5 type  1   force =     0.00000004    0.00000000   -0.00000062
     atom    6 type  1   force =     0.00000004   -0.00000003   -0.00000189
     atom    7 type  1   force =    -0.00000050   -0.00000000   -0.00000164
     atom    8 type  1   force =     0.00000057   -0.00000002    0.00000161
     atom    9 type  1   force =    -0.00000009    0.00000000    0.00000204
     atom   10 type  1   force =    -0.00000005   -0.00000002    0.00000068
     atom   11 type  1   force =     0.00000004    0.00000000   -0.00000074
     atom   12 type  1   force =     0.00000004    0.00000003   -0.00000189
     atom   13 type  1   force =    -0.00000065   -0.00000000   -0.00000171
     atom   14 type  1   force =     0.00000057   -0.00000001    0.00000151
     atom   15 type  1   force =    -0.00000005    0.00000000    0.00000185
     atom   16 type  1   force =    -0.00000006    0.00000001    0.00000063
     atom   17 type  1   force =     0.00000005    0.00000000   -0.00000061
     atom   18 type  1   force =     0.00000005   -0.00000004   -0.00000181
     atom   19 type  1   force =    -0.00000056   -0.00000000   -0.00000173
     atom   20 type  1   force =     0.00000057    0.00000001    0.00000151
     atom   21 type  1   force =    -0.00000005    0.00000000    0.00000195
     atom   22 type  1   force =    -0.00000006   -0.00000001    0.00000063
     atom   23 type  1   force =     0.00000005   -0.00000000   -0.00000068
     atom   24 type  1   force =     0.00000005    0.00000004   -0.00000181

     Total force =     0.001384     Total SCF correction =     0.000007
     Energy error            =      4.5E-06 Ry
     Gradient error          =      3.8E-04 Ry/Bohr

     bfgs converged in  26 scf cycles and  25 bfgs steps
     (criteria: energy <  1.0E-05 Ry, force <  3.9E-04 Ry/Bohr)

     End of BFGS Geometry Optimization

     Final energy             =    -360.9058106097 Ry

     File ./Li/Lithium.bfgs deleted, as requested
Begin final coordinates

ATOMIC_POSITIONS (angstrom)
Li               3.1490889656        4.8580445300       27.2108397231
Li               0.8173617395        2.4292180454       19.8350801249
Li               1.9738194737        4.8580445600       21.5564600812
Li               3.1841345781        2.4290301871       22.6795932905
Li               0.7820670947        4.8580445800       24.3670235374
Li               1.9932133014        2.4290969097       25.4900878684
Li               3.1487339294        9.7160883600       27.2108051736
Li               0.8173616995        7.2868711146       19.8350801849
Li               1.9733725791        9.7160883800       21.5564592533
Li               3.1841343981        7.2870589529       22.6795933305
Li               0.7821982463        9.7160883300       24.3663302051
Li               1.9932132314        7.2869922003       25.4900879483
Li               6.1252376986        4.8580445300       27.2107315576
Li               3.7918116931        2.4292983821       19.8349513685
Li               4.9486707457        4.8580445600       21.5565153055
Li               6.1588624721        2.4286876135       22.6795076402
Li               3.7574340638        4.8580445800       24.3671183720
Li               4.9673770247        2.4290119526       25.4898961071
Li               6.1251428575        9.7160883600       27.2110470728
Li               3.7918116431        7.2867907779       19.8349514385
Li               4.9491347840        9.7160883800       21.5565956589
Li               6.1588622921        7.2874015265       22.6795076802
Li               3.7576903456        9.7160883300       24.3666587823
Li               4.9673769547        7.2870771574       25.4898961871
End final coordinates

     Writing all to output data dir ./Li/Lithium.save/ :
     XML data file

     General routines

     Parallel routines

     PAW routines

     Environ routines

   This run was terminated on:   2: 5:16   5Jan2025

   JOB DONE.