     Program PWSCF v.7.4 starts on  2Jan2025 at 21: 6:31

     Reading input from espresso.pwi
Warning: card &CELL ignored
Warning: card    PRESS_CONV_THR   = 0.1 ignored
Warning: card    CELL_DOFREE      = 'ALL' ignored
Warning: card / ignored
Warning: card &FCP ignored
Warning: card / ignored
Warning: card &RISM ignored
Warning: card / ignored

     Current dimensions of program PWSCF are:
     Max number of different atomic species (ntypx) = 10
     Max number of k-points (npk) =  40000
     Max angular momentum in pseudopotentials (lmaxx) =  4

     IMPORTANT: XC functional enforced from input :
     Exchange-correlation= PBE
                           (   1   4   3   4   0   0   0)
     Any further DFT definition will be discarded
     Please, verify this is what you really want

     Reading input from environ.in:
     * using ionic solvent mode
     * setting boundary derivatives method to SSCS default
     * setting electrolyte-boundary derivatives method to SSCS default

Environ Warning (1001): card EOF ignored

     K-points division:     npool     =       2
     R & G space division:  proc/nbgrp/npool/nimage =     192
     Subspace diagonalization in iterative solution of the eigenvalue problem:
     a serial algorithm will be used

     Using Slab Decomposition

     bravais-lattice index     =            8
     lattice parameter (alat)  =      11.2436  a.u.
     unit-cell volume          =   18353.5537 (a.u.)^3
     number of atoms/cell      =           24
     number of atomic types    =            1
     number of electrons       =        72.00
     number of Kohn-Sham states=           54
     kinetic-energy cutoff     =      80.0000  Ry
     charge density cutoff     =     800.0000  Ry
     scf convergence threshold =      1.0E-06
     mixing beta               =       0.2000
     number of iterations used =            8  local-TF  mixing
     energy convergence thresh.=      1.0E-05
     force convergence thresh. =      3.9E-04
     Exchange-correlation= PBE
                           (   1   4   3   4   0   0   0)
     nstep                     =          999

                                  Environ Setup Summary

          O. Andreussi, I. Dabo and N. Marzari, J. Chem. Phys. 136, 064102 (2012)
          F. Nattino, M. Truscott, N. Marzari, and O. Andreussi, J. Chem. Phys. 150, 041722 (2019)

     in publications or presentations arising from this work.

     Parameters

     compensation onset threshold      =               0.1000E+00
     static permittivity               =                    89.90
     surface tension in input (dyn/cm) =                    37.30
     surface tension in internal units =               0.4792E-04

     Solvent Boundary

     solvent mode                      =                    ionic
     derivatives method                =                   lowmem
     electrolyte derivatives method    =                   lowmem
     numerical core for derivatives    =                      fft
     switching function adopted        =                     SCCS
     density limit for vacuum region   =               0.5000E-02
     density limit for bulk solvent    =               0.1000E-03
     soft-sphere radius mode           =                    bondi
     soft-sphere softness              =                     0.50
     alpha                             =                     1.32

     Electrostatic Setup

     electrostatic problem to solve    =                    modpb
     numerical solver adopted          =                   newton
     type of auxiliary density adopted =                     none
     numerical core for poisson        =                      fft
     adopting a nested solver scheme
     inner solver                      =                       cg
     inner core                        =                      fft
     type of pbc corrections           =                parabolic
     numerical core for corrections    =                      1da

     >>>>> Grand-Canonical SCF is activated <<<<<
     Initial Total Charge  =     0.000000 e
     Target Fermi Energy   =    -2.404000 eV
     Thr. of Fermi Energy  =     0.001000 eV
     Wave-shift of Kerker  =     0.400000 bohr^-1
     Wave-shift of Hartree =     1.500000 bohr^-1
     Mixing Rate of Fermi  =     0.050000

     celldm(1)=  11.243615  celldm(2)=   1.632993  celldm(3)=   7.907113
     celldm(4)=   0.000000  celldm(5)=   0.000000  celldm(6)=   0.000000

     crystal axes: (cart. coord. in units of alat)
               a(1) = (   1.000000   0.000000   0.000000 )
               a(2) = (   0.000000   1.632993   0.000000 )
               a(3) = (   0.000000   0.000000   7.907113 )

     reciprocal axes: (cart. coord. in units 2 pi/alat)
               b(1) = (  1.000000  0.000000  0.000000 )
               b(2) = (  0.000000  0.612372  0.000000 )
               b(3) = (  0.000000  0.000000  0.126468 )

     PseudoPot. # 1 for Li read from file:
     /work/e89/e89/ba3g18/Repos/Pseudopotentials/Pslibrary/Li.pbe-sl-kjpaw_psl.1.0.0.UPF
     MD5 check sum: 3f4d2cafebb47c6c3aa8ed472e6f074d
     Pseudo is Projector augmented-wave, Zval =  3.0
     Generated using 'atomic' code by A. Dal Corso  v.7.4
     Shape of augmentation charge: PSQ
     Using radial grid of 1017 points,  4 beta functions with:
                l(1) =   0
                l(2) =   0
                l(3) =   1
                l(4) =   1
     Q(r) pseudized with 0 coefficients

     atomic species   valence    mass     pseudopotential
     Li                3.00     6.94000     Li( 1.00)

      2 Sym. Ops. (no inversion) found

                                    s                        frac. trans.

      isym =  1     identity

 cryst.   s( 1) = (     1          0          0      )
                  (     0          1          0      )
                  (     0          0          1      )

 cart.    s( 1) = (  1.0000000  0.0000000  0.0000000 )
                  (  0.0000000  1.0000000  0.0000000 )
                  (  0.0000000  0.0000000  1.0000000 )

      isym =  2     inv. 180 deg rotation - cart. axis [0,1,0]

 cryst.   s( 2) = (     1          0          0      )
                  (     0         -1          0      )
                  (     0          0          1      )

 cart.    s( 2) = (  1.0000000  0.0000000  0.0000000 )
                  (  0.0000000 -1.0000000  0.0000000 )
                  (  0.0000000  0.0000000  1.0000000 )

     point group C_s (m)
     there are  2 classes
     the character table:

       E     s
A'     1.00  1.00
A''    1.00 -1.00

     the symmetry operations in each class and the name of the first element:

     E        1
          identity
     s        2
          inv. 180 deg rotation - cart. axis [0,1,0]

   Cartesian axes

     site n.     atom                  positions (alat units)
         1        Li     tau(   1) = (   0.5269360   0.8164966   4.5389552  )
         2        Li     tau(   2) = (   0.1396332   0.4082305   3.3682529  )
         3        Li     tau(   3) = (   0.3428185   0.8164966   3.6141457  )
         4        Li     tau(   4) = (   0.5082298   0.4083468   3.8261593  )
         5        Li     tau(   5) = (   0.1584543   0.8164966   4.0808863  )
         6        Li     tau(   6) = (   0.3239109   0.4083813   4.2929615  )
         7        Li     tau(   7) = (   0.5269517   1.6329931   4.5390990  )
         8        Li     tau(   8) = (   0.1396332   1.2247627   3.3682529  )
         9        Li     tau(   9) = (   0.3427350   1.6329931   3.6141192  )
        10        Li     tau(  10) = (   0.5082298   1.2246465   3.8261593  )
        11        Li     tau(  11) = (   0.1584363   1.6329931   4.0807354  )
        12        Li     tau(  12) = (   0.3239109   1.2246120   4.2929615  )
        13        Li     tau(  13) = (   1.0271375   0.8164966   4.5389426  )
        14        Li     tau(  14) = (   0.6395452   0.4082412   3.3682501  )
        15        Li     tau(  15) = (   0.8428118   0.8164966   3.6141501  )
        16        Li     tau(  16) = (   1.0082287   0.4083119   3.8261553  )
        17        Li     tau(  17) = (   0.6585091   0.8164966   4.0808595  )
        18        Li     tau(  18) = (   0.8237881   0.4083770   4.2929104  )
        19        Li     tau(  19) = (   1.0271726   1.6329931   4.5391161  )
        20        Li     tau(  20) = (   0.6395451   1.2247521   3.3682501  )
        21        Li     tau(  21) = (   0.8428473   1.6329931   3.6141448  )
        22        Li     tau(  22) = (   1.0082287   1.2246814   3.8261553  )
        23        Li     tau(  23) = (   0.6585191   1.6329931   4.0807851  )
        24        Li     tau(  24) = (   0.8237881   1.2246163   4.2929104  )

   Crystallographic axes

     site n.     atom                  positions (cryst. coord.)
         1        Li     tau(   1) = (  0.5269360  0.5000001  0.5740344  )
         2        Li     tau(   2) = (  0.1396332  0.2499891  0.4259776  )
         3        Li     tau(   3) = (  0.3428185  0.5000001  0.4570753  )
         4        Li     tau(   4) = (  0.5082298  0.2500603  0.4838883  )
         5        Li     tau(   5) = (  0.1584543  0.5000001  0.5161032  )
         6        Li     tau(   6) = (  0.3239109  0.2500815  0.5429240  )
         7        Li     tau(   7) = (  0.5269517  1.0000001  0.5740526  )
         8        Li     tau(   8) = (  0.1396332  0.7500110  0.4259776  )
         9        Li     tau(   9) = (  0.3427350  1.0000001  0.4570719  )
        10        Li     tau(  10) = (  0.5082298  0.7499398  0.4838883  )
        11        Li     tau(  11) = (  0.1584363  1.0000001  0.5160841  )
        12        Li     tau(  12) = (  0.3239109  0.7499187  0.5429240  )
        13        Li     tau(  13) = (  1.0271375  0.5000001  0.5740329  )
        14        Li     tau(  14) = (  0.6395452  0.2499957  0.4259772  )
        15        Li     tau(  15) = (  0.8428118  0.5000001  0.4570758  )
        16        Li     tau(  16) = (  1.0082287  0.2500390  0.4838878  )
        17        Li     tau(  17) = (  0.6585091  0.5000001  0.5160998  )
        18        Li     tau(  18) = (  0.8237881  0.2500788  0.5429175  )
        19        Li     tau(  19) = (  1.0271726  1.0000001  0.5740548  )
        20        Li     tau(  20) = (  0.6395451  0.7500045  0.4259772  )
        21        Li     tau(  21) = (  0.8428473  1.0000001  0.4570751  )
        22        Li     tau(  22) = (  1.0082287  0.7499612  0.4838878  )
        23        Li     tau(  23) = (  0.6585191  1.0000001  0.5160904  )
        24        Li     tau(  24) = (  0.8237881  0.7499213  0.5429176  )

     number of k points=    24  Marzari-Vanderbilt smearing, width (Ry)=  0.0100
                       cart. coord. in units 2pi/alat
        k(    1) = (   0.0000000   0.0000000   0.0000000), wk =   0.0259740
        k(    2) = (   0.0000000   0.0874818   0.0000000), wk =   0.0519481
        k(    3) = (   0.0000000   0.1749636   0.0000000), wk =   0.0519481
        k(    4) = (   0.0000000   0.2624454   0.0000000), wk =   0.0519481
        k(    5) = (   0.0909091   0.0000000   0.0000000), wk =   0.0519481
        k(    6) = (   0.0909091   0.0874818   0.0000000), wk =   0.1038961
[...]
     atom    8 type  1   force =     0.00019806   -0.00015297    0.01475245
     atom    9 type  1   force =    -0.00016172   -0.00000002    0.05146550
     atom   10 type  1   force =    -0.00012801    0.00005690    0.00944668
     atom   11 type  1   force =     0.00012717   -0.00000000   -0.01028012
     atom   12 type  1   force =     0.00016266   -0.00000323   -0.05241904
     atom   13 type  1   force =    -0.00020232    0.00000009   -0.01637148
     atom   14 type  1   force =     0.00019622    0.00014938    0.01474917
     atom   15 type  1   force =    -0.00016351   -0.00000003    0.05141020
     atom   16 type  1   force =    -0.00012895   -0.00005777    0.00944682
     atom   17 type  1   force =     0.00013198    0.00000001   -0.01037647
     atom   18 type  1   force =     0.00016341    0.00000125   -0.05241772
     atom   19 type  1   force =    -0.00019935    0.00000006   -0.01591856
     atom   20 type  1   force =     0.00019622   -0.00014921    0.01474920
     atom   21 type  1   force =    -0.00015849   -0.00000002    0.05146584
     atom   22 type  1   force =    -0.00012895    0.00005777    0.00944683
     atom   23 type  1   force =     0.00012900   -0.00000000   -0.01028021
     atom   24 type  1   force =     0.00016341   -0.00000130   -0.05241770

     Forces acting on atoms (cartesian axes, Ry/au):

     atom    1 type  1   force =    -0.00018257    0.00000000    0.00036783
     atom    2 type  1   force =     0.00018274    0.00021703    0.00017220
     atom    3 type  1   force =     0.00013805    0.00000000   -0.00021568
     atom    4 type  1   force =     0.00002697    0.00022155    0.00008776
     atom    5 type  1   force =    -0.00008176    0.00000000   -0.00031717
     atom    6 type  1   force =    -0.00019774   -0.00028599   -0.00032425
     atom    7 type  1   force =    -0.00015471    0.00000000   -0.00015716
     atom    8 type  1   force =     0.00018274   -0.00021703    0.00017220
     atom    9 type  1   force =     0.00019537    0.00000000    0.00011380
     atom   10 type  1   force =     0.00002697   -0.00022155    0.00008776
     atom   11 type  1   force =     0.00006251    0.00000000    0.00033238
     atom   12 type  1   force =    -0.00019774    0.00028599   -0.00032425
     atom   13 type  1   force =    -0.00020589    0.00000000    0.00036811
     atom   14 type  1   force =     0.00018684    0.00020555    0.00017196
     atom   15 type  1   force =     0.00016143    0.00000000   -0.00021387
     atom   16 type  1   force =     0.00004582    0.00023596    0.00008687
     atom   17 type  1   force =    -0.00007398    0.00000000   -0.00030589
     atom   18 type  1   force =    -0.00018633   -0.00027783   -0.00031726
     atom   19 type  1   force =    -0.00015673    0.00000000   -0.00015601
     atom   20 type  1   force =     0.00018684   -0.00020555    0.00017196
     atom   21 type  1   force =     0.00014740    0.00000000    0.00010093
     atom   22 type  1   force =     0.00004582   -0.00023596    0.00008687
     atom   23 type  1   force =     0.00003430    0.00000000    0.00032818
     atom   24 type  1   force =    -0.00018633    0.00027783   -0.00031726
     The non-local contrib.  to forces
     atom    1 type  1   force =     0.00088405    0.00000000    0.05293350
     atom    2 type  1   force =    -0.00083575    0.00039772   -0.05251699
     atom    3 type  1   force =     0.00086182    0.00000000   -0.01306302
     atom    4 type  1   force =    -0.00019681    0.00010240    0.00181221
     atom    5 type  1   force =     0.00024911    0.00000000   -0.00214234
     atom    6 type  1   force =    -0.00086753   -0.00037264    0.01268549
     atom    7 type  1   force =     0.00078388    0.00000000    0.05207624
     atom    8 type  1   force =    -0.00083575   -0.00039772   -0.05251699
     atom    9 type  1   force =     0.00094002    0.00000000   -0.01302711
     atom   10 type  1   force =    -0.00019681   -0.00010240    0.00181221
     atom   11 type  1   force =     0.00006258    0.00000000   -0.00128819
     atom   12 type  1   force =    -0.00086753    0.00037264    0.01268549
     atom   13 type  1   force =     0.00085404    0.00000000    0.05293215
     atom   14 type  1   force =    -0.00083500    0.00037305   -0.05252129
     atom   15 type  1   force =     0.00089578    0.00000000   -0.01306628
     atom   16 type  1   force =    -0.00017772    0.00012775    0.00181442
     atom   17 type  1   force =     0.00026488    0.00000000   -0.00212281
     atom   18 type  1   force =    -0.00085969   -0.00036039    0.01269885
     atom   19 type  1   force =     0.00078749    0.00000000    0.05208434
     atom   20 type  1   force =    -0.00083500   -0.00037305   -0.05252129
     atom   21 type  1   force =     0.00089415    0.00000000   -0.01304257
     atom   22 type  1   force =    -0.00017772   -0.00012775    0.00181442
     atom   23 type  1   force =     0.00002501    0.00000000   -0.00129998
     atom   24 type  1   force =    -0.00085969    0.00036039    0.01269885
     The ionic contribution  to forces
     atom    1 type  1   force =    -0.00305853   -0.00000002    8.35848562
     atom    2 type  1   force =     0.00316481    0.01297485   -8.36649243
     atom    3 type  1   force =    -0.00235207    0.00000001   -5.68954160
     atom    4 type  1   force =     0.00300102    0.00703572   -1.58116428
     atom    5 type  1   force =    -0.00389515   -0.00000001    1.57754305
     atom    6 type  1   force =     0.00165497   -0.01001792    5.70780971
     atom    7 type  1   force =    -0.00288927    0.00000004    8.35971244
     atom    8 type  1   force =     0.00316480   -0.01297487   -8.36649235
     atom    9 type  1   force =    -0.00154287    0.00000002   -5.70306064
     atom   10 type  1   force =     0.00300103   -0.00703575   -1.58116419
     atom   11 type  1   force =    -0.00192815    0.00000004    1.57665390
     atom   12 type  1   force =     0.00165498    0.01001789    5.70780991
     atom   13 type  1   force =    -0.00352833   -0.00000002    8.35852256
     atom   14 type  1   force =     0.00318391    0.01268246   -8.36651872
     atom   15 type  1   force =    -0.00170502    0.00000001   -5.68954986
     atom   16 type  1   force =     0.00339566    0.00742423   -1.58115004
     atom   17 type  1   force =    -0.00360053   -0.00000001    1.57746240
     atom   18 type  1   force =     0.00185128   -0.00979772    5.70768376
     atom   19 type  1   force =    -0.00284816    0.00000004    8.35975274
     atom   20 type  1   force =     0.00318392   -0.01268247   -8.36651863
     atom   21 type  1   force =    -0.00250710    0.00000002   -5.70292629
     atom   22 type  1   force =     0.00339567   -0.00742426   -1.58114996
     atom   23 type  1   force =    -0.00264814    0.00000004    1.57660897
     atom   24 type  1   force =     0.00185129    0.00979769    5.70768396
     The local contribution  to forces
     atom    1 type  1   force =     0.00219695   -0.00004232   -8.39466724
     atom    2 type  1   force =    -0.00234541   -0.01335426    8.40442607
     atom    3 type  1   force =     0.00178628   -0.00004368    5.65097666
     atom    4 type  1   force =    -0.00265439   -0.00690419    1.56999372
     atom    5 type  1   force =     0.00343100   -0.00004498   -1.56534214
     atom    6 type  1   force =    -0.00114993    0.01005732   -5.66839917
     atom    7 type  1   force =     0.00215056   -0.00004372   -8.39601130
     atom    8 type  1   force =    -0.00234309    0.01326376    8.40442246
     atom    9 type  1   force =     0.00095994   -0.00004450    5.66473461
     atom   10 type  1   force =    -0.00264393    0.00681541    1.56999129
     atom   11 type  1   force =     0.00180077   -0.00004172   -1.56475442
     atom   12 type  1   force =    -0.00114587   -0.01014410   -5.66840403
     atom   13 type  1   force =     0.00267064   -0.00004232   -8.39470876
     atom   14 type  1   force =    -0.00235963   -0.01304495    8.40445993
     atom   15 type  1   force =     0.00113430   -0.00004368    5.65099099
     atom   16 type  1   force =    -0.00304832   -0.00730276    1.56997625
     atom   17 type  1   force =     0.00312955   -0.00004498   -1.56527075
     atom   18 type  1   force =    -0.00134338    0.00983497   -5.66828092
     atom   19 type  1   force =     0.00210317   -0.00004372   -8.39606131
     atom   20 type  1   force =    -0.00235672    0.01295445    8.40445571
     atom   21 type  1   force =     0.00191882   -0.00004450    5.66460250
     atom   22 type  1   force =    -0.00303786    0.00721398    1.56997382
     atom   23 type  1   force =     0.00252829   -0.00004172   -1.56470176
     atom   24 type  1   force =    -0.00133931   -0.00992175   -5.66828579
     The core correction contribution to forces
     atom    1 type  1   force =     0.00000000    0.00000000    0.00000000
     atom    2 type  1   force =     0.00000000    0.00000000    0.00000000
     atom    3 type  1   force =     0.00000000    0.00000000    0.00000000
     atom    4 type  1   force =     0.00000000    0.00000000    0.00000000
     atom    5 type  1   force =     0.00000000    0.00000000    0.00000000
     atom    6 type  1   force =     0.00000000    0.00000000    0.00000000
     atom    7 type  1   force =     0.00000000    0.00000000    0.00000000
     atom    8 type  1   force =     0.00000000    0.00000000    0.00000000
     atom    9 type  1   force =     0.00000000    0.00000000    0.00000000
     atom   10 type  1   force =     0.00000000    0.00000000    0.00000000
     atom   11 type  1   force =     0.00000000    0.00000000    0.00000000
     atom   12 type  1   force =     0.00000000    0.00000000    0.00000000
     atom   13 type  1   force =     0.00000000    0.00000000    0.00000000
     atom   14 type  1   force =     0.00000000    0.00000000    0.00000000
     atom   15 type  1   force =     0.00000000    0.00000000    0.00000000
     atom   16 type  1   force =     0.00000000    0.00000000    0.00000000
     atom   17 type  1   force =     0.00000000    0.00000000    0.00000000
     atom   18 type  1   force =     0.00000000    0.00000000    0.00000000
     atom   19 type  1   force =     0.00000000    0.00000000    0.00000000
     atom   20 type  1   force =     0.00000000    0.00000000    0.00000000
     atom   21 type  1   force =     0.00000000    0.00000000    0.00000000
     atom   22 type  1   force =     0.00000000    0.00000000    0.00000000
     atom   23 type  1   force =     0.00000000    0.00000000    0.00000000
     atom   24 type  1   force =     0.00000000    0.00000000    0.00000000
     The Hubbard contrib.    to forces
     atom    1 type  1   force =     0.00000000    0.00000000    0.00000000
     atom    2 type  1   force =     0.00000000    0.00000000    0.00000000
     atom    3 type  1   force =     0.00000000    0.00000000    0.00000000
     atom    4 type  1   force =     0.00000000    0.00000000    0.00000000
     atom    5 type  1   force =     0.00000000    0.00000000    0.00000000
     atom    6 type  1   force =     0.00000000    0.00000000    0.00000000
     atom    7 type  1   force =     0.00000000    0.00000000    0.00000000
     atom    8 type  1   force =     0.00000000    0.00000000    0.00000000
     atom    9 type  1   force =     0.00000000    0.00000000    0.00000000
     atom   10 type  1   force =     0.00000000    0.00000000    0.00000000
     atom   11 type  1   force =     0.00000000    0.00000000    0.00000000
     atom   12 type  1   force =     0.00000000    0.00000000    0.00000000
     atom   13 type  1   force =     0.00000000    0.00000000    0.00000000
     atom   14 type  1   force =     0.00000000    0.00000000    0.00000000
     atom   15 type  1   force =     0.00000000    0.00000000    0.00000000
     atom   16 type  1   force =     0.00000000    0.00000000    0.00000000
     atom   17 type  1   force =     0.00000000    0.00000000    0.00000000
     atom   18 type  1   force =     0.00000000    0.00000000    0.00000000
     atom   19 type  1   force =     0.00000000    0.00000000    0.00000000
     atom   20 type  1   force =     0.00000000    0.00000000    0.00000000
     atom   21 type  1   force =     0.00000000    0.00000000    0.00000000
     atom   22 type  1   force =     0.00000000    0.00000000    0.00000000
     atom   23 type  1   force =     0.00000000    0.00000000    0.00000000
     atom   24 type  1   force =     0.00000000    0.00000000    0.00000000
     The SCF correction term to forces
     atom    1 type  1   force =     0.00000013    0.00000000   -0.00000787
     atom    2 type  1   force =    -0.00000013    0.00000041    0.00000353
     atom    3 type  1   force =    -0.00000008    0.00000000   -0.00000027
     atom    4 type  1   force =    -0.00000008    0.00000011   -0.00000075
     atom    5 type  1   force =     0.00000014    0.00000000    0.00000039
     atom    6 type  1   force =     0.00000004    0.00000064   -0.00000025
     atom    7 type  1   force =     0.00000011   -0.00000000   -0.00001448
     atom    8 type  1   force =    -0.00000013   -0.00000041    0.00000353
     atom    9 type  1   force =    -0.00000001   -0.00000000    0.00000009
     atom   10 type  1   force =    -0.00000008   -0.00000011   -0.00000075
     atom   11 type  1   force =     0.00000013   -0.00000000   -0.00000014
     atom   12 type  1   force =     0.00000004   -0.00000064   -0.00000025
     atom   13 type  1   force =     0.00000007    0.00000000   -0.00000771
     atom   14 type  1   force =    -0.00000014    0.00000043    0.00000357
     atom   15 type  1   force =    -0.00000013    0.00000000   -0.00000027
     atom   16 type  1   force =    -0.00000010    0.00000010   -0.00000076
     atom   17 type  1   force =     0.00000013    0.00000000    0.00000039
     atom   18 type  1   force =     0.00000001    0.00000063   -0.00000026
     atom   19 type  1   force =     0.00000011   -0.00000000   -0.00001456
     atom   20 type  1   force =    -0.00000014   -0.00000043    0.00000357
     atom   21 type  1   force =     0.00000001   -0.00000000    0.00000011
     atom   22 type  1   force =    -0.00000010   -0.00000010   -0.00000076
     atom   23 type  1   force =     0.00000012   -0.00000000   -0.00000019
     atom   24 type  1   force =     0.00000001   -0.00000063   -0.00000026

     Total force =     0.001628     Total SCF correction =     0.000024
     Energy error            =      6.8E-06 Ry
     Gradient error          =      3.7E-04 Ry/Bohr

     bfgs converged in  56 scf cycles and  55 bfgs steps
     (criteria: energy <  1.0E-05 Ry, force <  3.9E-04 Ry/Bohr)

     End of BFGS Geometry Optimization

     Final energy             =    -360.8101767152 Ry

     File ./Li/Lithium.bfgs deleted, as requested
Begin final coordinates

ATOMIC_POSITIONS (angstrom)
Li               3.1480496790        4.8580445300       26.9351092417
Li               0.8164896841        2.4232509031       20.0989729292
Li               2.1477356881        4.8580445600       21.3252350511
Li               2.8631355522        2.4253747243       22.8883560344
Li               1.1115934551        4.8580445800       24.1627533838
Li               1.8166394399        2.4316881285       25.7331496193
Li               3.1472835331        9.7160883600       26.9441221556
Li               0.8164896441        7.2928382569       20.0989729892
Li               2.1492457840        9.7160883800       21.3159855087
Li               2.8631353722        7.2907144157       22.8883560744
Li               1.1030253241        9.7160883300       24.1533194996
Li               1.8166393699        7.2844009815       25.7331496992
Li               6.1231930140        4.8580445300       26.9351620426
Li               3.7913957028        2.4233622494       20.0989665228
Li               5.1224152138        4.8580445600       21.3252314057
Li               5.8378674988        2.4252327473       22.8883572829
Li               4.0864428487        4.8580445800       24.1626129131
Li               4.7914438423        2.4316167546       25.7330290348
Li               6.1222343708        9.7160883600       26.9441193433
Li               3.7913956528        7.2927269106       20.0989665928
Li               5.1246969535        9.7160883800       21.3161465001
Li               5.8378673188        7.2908563927       22.8883573229
Li               4.0782530971        9.7160883300       24.1533576298
Li               4.7914437723        7.2844723554       25.7330291148
End final coordinates

     Writing all to output data dir ./Li/Lithium.save/ :
     XML data file

     General routines

     Parallel routines

     PAW routines

     Environ routines

   This run was terminated on:   2:41:19   3Jan2025

   JOB DONE.