     Program PWSCF v.7.4 starts on  4Jan2025 at 19:15:22

     Reading input from espresso.pwi
Warning: card &CELL ignored
Warning: card    PRESS_CONV_THR   = 0.1 ignored
Warning: card    CELL_DOFREE      = 'ALL' ignored
Warning: card / ignored
Warning: card &FCP ignored
Warning: card / ignored
Warning: card &RISM ignored
Warning: card / ignored

     Current dimensions of program PWSCF are:
     Max number of different atomic species (ntypx) = 10
     Max number of k-points (npk) =  40000
     Max angular momentum in pseudopotentials (lmaxx) =  4

     IMPORTANT: XC functional enforced from input :
     Exchange-correlation= PBE
                           (   1   4   3   4   0   0   0)
     Any further DFT definition will be discarded
     Please, verify this is what you really want

     Reading input from environ.in:
     * using ionic solvent mode
     * setting boundary derivatives method to SSCS default
     * setting electrolyte-boundary derivatives method to SSCS default

Environ Warning (1001): card EOF ignored

     K-points division:     npool     =       2
     R & G space division:  proc/nbgrp/npool/nimage =     256
     Subspace diagonalization in iterative solution of the eigenvalue problem:
     a serial algorithm will be used

     Using Slab Decomposition

     bravais-lattice index     =           12
     lattice parameter (alat)  =      11.2436  a.u.
     unit-cell volume          =   15431.5264 (a.u.)^3
     number of atoms/cell      =           28
     number of atomic types    =            1
     number of electrons       =        84.00
     number of Kohn-Sham states=           63
     kinetic-energy cutoff     =      80.0000  Ry
     charge density cutoff     =     800.0000  Ry
     scf convergence threshold =      1.0E-06
     mixing beta               =       0.2000
     number of iterations used =            8  local-TF  mixing
     energy convergence thresh.=      1.0E-05
     force convergence thresh. =      3.9E-04
     Exchange-correlation= PBE
                           (   1   4   3   4   0   0   0)
     nstep                     =          999

                                  Environ Setup Summary

          O. Andreussi, I. Dabo and N. Marzari, J. Chem. Phys. 136, 064102 (2012)
          F. Nattino, M. Truscott, N. Marzari, and O. Andreussi, J. Chem. Phys. 150, 041722 (2019)

     in publications or presentations arising from this work.

     Parameters

     compensation onset threshold      =               0.1000E+00
     static permittivity               =                    89.90
     surface tension in input (dyn/cm) =                    37.30
     surface tension in internal units =               0.4792E-04

     Solvent Boundary

     solvent mode                      =                    ionic
     derivatives method                =                   lowmem
     electrolyte derivatives method    =                   lowmem
     numerical core for derivatives    =                      fft
     switching function adopted        =                     SCCS
     density limit for vacuum region   =               0.5000E-02
     density limit for bulk solvent    =               0.1000E-03
     soft-sphere radius mode           =                    bondi
     soft-sphere softness              =                     0.50
     alpha                             =                     1.32

     Electrostatic Setup

     electrostatic problem to solve    =                    modpb
     numerical solver adopted          =                   newton
     type of auxiliary density adopted =                     none
     numerical core for poisson        =                      fft
     adopting a nested solver scheme
     inner solver                      =                       cg
     inner core                        =                      fft
     type of pbc corrections           =                parabolic
     numerical core for corrections    =                      1da

     >>>>> Grand-Canonical SCF is activated <<<<<
     Initial Total Charge  =     0.000000 e
     Target Fermi Energy   =    -1.904000 eV
     Thr. of Fermi Energy  =     0.001000 eV
     Wave-shift of Kerker  =     0.400000 bohr^-1
     Wave-shift of Hartree =     1.500000 bohr^-1
     Mixing Rate of Fermi  =     0.050000

     celldm(1)=  11.243615  celldm(2)=   1.258306  celldm(3)=   8.704589
     celldm(4)=  -0.132454  celldm(5)=   0.000000  celldm(6)=   0.000000

     crystal axes: (cart. coord. in units of alat)
               a(1) = (   1.000000   0.000000   0.000000 )
               a(2) = (  -0.166667   1.247219   0.000000 )
               a(3) = (   0.000000   0.000000   8.704589 )

     reciprocal axes: (cart. coord. in units 2 pi/alat)
               b(1) = (  1.000000  0.133631 -0.000000 )
               b(2) = (  0.000000  0.801784  0.000000 )
               b(3) = (  0.000000 -0.000000  0.114882 )

     PseudoPot. # 1 for Li read from file:
     /work/e89/e89/ba3g18/Repos/Pseudopotentials/Pslibrary/Li.pbe-sl-kjpaw_psl.1.0.0.UPF
     MD5 check sum: 3f4d2cafebb47c6c3aa8ed472e6f074d
     Pseudo is Projector augmented-wave, Zval =  3.0
     Generated using 'atomic' code by A. Dal Corso  v.7.4
     Shape of augmentation charge: PSQ
     Using radial grid of 1017 points,  4 beta functions with:
                l(1) =   0
                l(2) =   0
                l(3) =   1
                l(4) =   1
     Q(r) pseudized with 0 coefficients

     atomic species   valence    mass     pseudopotential
     Li                3.00     6.94000     Li( 1.00)

     No symmetry found

                                    s                        frac. trans.

      isym =  1     identity

 cryst.   s( 1) = (     1          0          0      )
                  (     0          1          0      )
                  (     0          0          1      )

 cart.    s( 1) = (  1.0000000  0.0000000  0.0000000 )
                  (  0.0000000  1.0000000  0.0000000 )
                  (  0.0000000  0.0000000  1.0000000 )

     point group C_1 (1)
     there are  1 classes
     the character table:

       E
A      1.00

     the symmetry operations in each class and the name of the first element:

     E        1
          identity

   Cartesian axes

     site n.     atom                  positions (alat units)
         1        Li     tau(   1) = (   0.0435332  -0.0314823   5.3338690  )
         2        Li     tau(   2) = (  -0.0439406   0.8334608   3.3711317  )
         3        Li     tau(   3) = (   0.1246948   0.3608470   3.4944830  )
         4        Li     tau(   4) = (   0.1787274   1.1794379   3.6612939  )
         5        Li     tau(   5) = (   0.2890173   0.7086119   3.8027280  )
         6        Li     tau(   6) = (   0.0028658   0.2803578   3.9746332  )
         7        Li     tau(   7) = (  -0.0201127   1.0627538   4.1089162  )
         8        Li     tau(   8) = (   0.1814137   0.6330654   4.2818502  )
         9        Li     tau(   9) = (   0.3191482   0.1685622   4.4222014  )
        10        Li     tau(  10) = (   0.3535412   0.9861272   4.5955129  )
        11        Li     tau(  11) = (  -0.0025075   0.5213733   4.7296871  )
        12        Li     tau(  12) = (   0.2112584   0.0931869   4.9017398  )
        13        Li     tau(  13) = (   0.1541210   0.8695294   5.0436143  )
        14        Li     tau(  14) = (   0.3749104   0.4410897   5.2104587  )
        15        Li     tau(  15) = (   0.5435369  -0.0314820   5.3338686  )
        16        Li     tau(  16) = (   0.4560376   0.8334603   3.3711340  )
        17        Li     tau(  17) = (   0.6247052   0.3608473   3.4944843  )
        18        Li     tau(  18) = (   0.6787297   1.1794456   3.6612962  )
        19        Li     tau(  19) = (   0.7890119   0.7086080   3.8027338  )
        20        Li     tau(  20) = (   0.5028695   0.2803606   3.9746352  )
        21        Li     tau(  21) = (   0.4798875   1.0627535   4.1089165  )
        22        Li     tau(  22) = (   0.6814147   0.6330644   4.2818469  )
        23        Li     tau(  23) = (   0.8191469   0.1685618   4.4222012  )
        24        Li     tau(  24) = (   0.8535416   0.9861270   4.5955138  )
        25        Li     tau(  25) = (   0.4974912   0.5213726   4.7296870  )
        26        Li     tau(  26) = (   0.7112579   0.0931875   4.9017415  )
        27        Li     tau(  27) = (   0.6541210   0.8695304   5.0436145  )
        28        Li     tau(  28) = (   0.8749115   0.4410906   5.2104598  )

   Crystallographic axes

     site n.     atom                  positions (cryst. coord.)
         1        Li     tau(   1) = (  0.0393262 -0.0252420  0.6127652  )
         2        Li     tau(   2) = (  0.0674355  0.6682554  0.3872821  )
         3        Li     tau(   3) = (  0.1729151  0.2893212  0.4014530  )
         4        Li     tau(   4) = (  0.3363367  0.9456542  0.4206165  )
         5        Li     tau(   5) = (  0.3837097  0.5681535  0.4368647  )
         6        Li     tau(   6) = (  0.0403303  0.2247863  0.4566135  )
         7        Li     tau(   7) = (  0.1219041  0.8520988  0.4720402  )
         8        Li     tau(   8) = (  0.2660108  0.5075816  0.4919072  )
         9        Li     tau(   9) = (  0.3416733  0.1351505  0.5080310  )
        10        Li     tau(  10) = (  0.4853183  0.7906608  0.5279414  )
        11        Li     tau(  11) = (  0.0671640  0.4180287  0.5433556  )
        12        Li     tau(  12) = (  0.2237110  0.0747157  0.5631213  )
        13        Li     tau(  13) = (  0.2703170  0.6971746  0.5794202  )
        14        Li     tau(  14) = (  0.4338536  0.3536585  0.5985876  )
        15        Li     tau(  15) = (  0.5393299 -0.0252417  0.6127651  )
        16        Li     tau(  16) = (  0.5674136  0.6682550  0.3872824  )
        17        Li     tau(  17) = (  0.6729256  0.2893216  0.4014531  )
        18        Li     tau(  18) = (  0.8363401  0.9456604  0.4206168  )
        19        Li     tau(  19) = (  0.8837039  0.5681504  0.4368654  )
        20        Li     tau(  20) = (  0.5403343  0.2247886  0.4566138  )
        21        Li     tau(  21) = (  0.6219042  0.8520985  0.4720403  )
        22        Li     tau(  22) = (  0.7660116  0.5075808  0.4919068  )
        23        Li     tau(  23) = (  0.8416720  0.1351501  0.5080310  )
        24        Li     tau(  24) = (  0.9853186  0.7906607  0.5279415  )
        25        Li     tau(  25) = (  0.5671627  0.4180281  0.5433556  )
        26        Li     tau(  26) = (  0.7237106  0.0747162  0.5631215  )
        27        Li     tau(  27) = (  0.7703171  0.6971754  0.5794202  )
        28        Li     tau(  28) = (  0.9338548  0.3536593  0.5985877  )

     number of k points=    50  Marzari-Vanderbilt smearing, width (Ry)=  0.0100
                       cart. coord. in units 2pi/alat
        k(    1) = (   0.0000000   0.0000000   0.0000000), wk =   0.0202020
        k(    2) = (   0.0000000   0.0890871   0.0000000), wk =   0.0404040
        k(    3) = (   0.0000000   0.1781742   0.0000000), wk =   0.0404040
        k(    4) = (   0.0000000   0.2672613   0.0000000), wk =   0.0404040
[...]
     atom   15 type  1   force =     0.00002896    0.00007723    0.00017684
     atom   16 type  1   force =    -0.00002383   -0.00007371   -0.00014246
     atom   17 type  1   force =     0.00013832   -0.00004109    0.00015893
     atom   18 type  1   force =     0.00014786   -0.00014833   -0.00012286
     atom   19 type  1   force =     0.00002648    0.00003707    0.00003723
     atom   20 type  1   force =    -0.00012653    0.00014414   -0.00013744
     atom   21 type  1   force =    -0.00011643   -0.00029150    0.00033555
     atom   22 type  1   force =    -0.00010204   -0.00000267   -0.00006108
     atom   23 type  1   force =     0.00011063   -0.00000065    0.00004053
     atom   24 type  1   force =     0.00010431    0.00029728   -0.00035028
     atom   25 type  1   force =     0.00012267   -0.00014051    0.00014278
     atom   26 type  1   force =    -0.00001105   -0.00003794   -0.00001788
     atom   27 type  1   force =    -0.00015984    0.00014538    0.00009858
     atom   28 type  1   force =    -0.00013819    0.00003468   -0.00016245
     The non-local contrib.  to forces
     atom    1 type  1   force =     0.00042877   -0.01488786    0.03369191
     atom    2 type  1   force =    -0.00043237    0.01491184   -0.03369312
     atom    3 type  1   force =    -0.00014978   -0.01431710   -0.03205147
     atom    4 type  1   force =     0.00070279    0.00334651   -0.01052737
     atom    5 type  1   force =    -0.00127454   -0.00384435    0.00400622
     atom    6 type  1   force =     0.00136885    0.00136264    0.00110034
     atom    7 type  1   force =    -0.00069711   -0.00186216    0.00078472
     atom    8 type  1   force =     0.00003306    0.00122304    0.00418994
     atom    9 type  1   force =    -0.00004217   -0.00123548   -0.00424482
     atom   10 type  1   force =     0.00071678    0.00185626   -0.00076576
     atom   11 type  1   force =    -0.00136601   -0.00134608   -0.00109911
     atom   12 type  1   force =     0.00125382    0.00385270   -0.00399967
     atom   13 type  1   force =    -0.00069278   -0.00335809    0.01054063
     atom   14 type  1   force =     0.00014810    0.01431079    0.03204757
     atom   15 type  1   force =     0.00042770   -0.01488806    0.03369204
     atom   16 type  1   force =    -0.00042542    0.01491190   -0.03369370
     atom   17 type  1   force =    -0.00015050   -0.01431716   -0.03205440
     atom   18 type  1   force =     0.00070264    0.00334259   -0.01052933
     atom   19 type  1   force =    -0.00126966   -0.00384192    0.00400231
     atom   20 type  1   force =     0.00136195    0.00135955    0.00109990
     atom   21 type  1   force =    -0.00069981   -0.00186149    0.00078548
     atom   22 type  1   force =     0.00003296    0.00122421    0.00419497
     atom   23 type  1   force =    -0.00004224   -0.00123542   -0.00424197
     atom   24 type  1   force =     0.00071483    0.00185627   -0.00076563
     atom   25 type  1   force =    -0.00136264   -0.00134527   -0.00109941
     atom   26 type  1   force =     0.00125461    0.00385353   -0.00400047
     atom   27 type  1   force =    -0.00069295   -0.00335897    0.01053951
     atom   28 type  1   force =     0.00014791    0.01431098    0.03204665
     The ionic contribution  to forces
     atom    1 type  1   force =     0.00088238   -0.22873126   12.96451963
     atom    2 type  1   force =    -0.00090669    0.22903961  -12.96515291
     atom    3 type  1   force =     0.00166450   -0.33986529  -12.07542794
     atom    4 type  1   force =    -0.00019987    0.12387246   -9.77642482
     atom    5 type  1   force =     0.00578175    0.01552444   -7.33719334
     atom    6 type  1   force =    -0.00600157   -0.04505232   -5.45786548
     atom    7 type  1   force =     0.00194683    0.01615565   -3.35485479
     atom    8 type  1   force =    -0.00110587    0.01815336   -0.76297564
     atom    9 type  1   force =     0.00118601   -0.01815300    0.76172113
     atom   10 type  1   force =    -0.00202106   -0.01633533    3.35574212
     atom   11 type  1   force =     0.00601096    0.04538554    5.45780055
     atom   12 type  1   force =    -0.00572680   -0.01553788    7.33501802
     atom   13 type  1   force =     0.00010679   -0.12399053    9.77884527
     atom   14 type  1   force =    -0.00163773    0.33954800   12.07623102
     atom   15 type  1   force =     0.00086387   -0.22873312   12.96452335
     atom   16 type  1   force =    -0.00079454    0.22904620  -12.96515044
     atom   17 type  1   force =     0.00164950   -0.33985048  -12.07546680
     atom   18 type  1   force =    -0.00020702    0.12380524   -9.77643219
     atom   19 type  1   force =     0.00589011    0.01557172   -7.33717203
     atom   20 type  1   force =    -0.00613503   -0.04511367   -5.45785996
     atom   21 type  1   force =     0.00190313    0.01616485   -3.35483020
     atom   22 type  1   force =    -0.00111349    0.01816385   -0.76299636
     atom   23 type  1   force =     0.00118836   -0.01815046    0.76174752
     atom   24 type  1   force =    -0.00205486   -0.01634166    3.35576103
     atom   25 type  1   force =     0.00607773    0.04540319    5.45780745
     atom   26 type  1   force =    -0.00570879   -0.01552591    7.33502285
     atom   27 type  1   force =     0.00010294   -0.12400263    9.77883555
     atom   28 type  1   force =    -0.00164154    0.33954944   12.07622740
     The local contribution  to forces
     atom    1 type  1   force =    -0.00076929    0.22374661  -12.89370744
     atom    2 type  1   force =     0.00079752   -0.22408935   12.89451381
     atom    3 type  1   force =    -0.00120860    0.31814284   11.95857453
     atom    4 type  1   force =    -0.00000761   -0.11412967    9.63977736
     atom    5 type  1   force =    -0.00431188   -0.01078962    7.24345507
     atom    6 type  1   force =     0.00434487    0.03982704    5.38260046
     atom    7 type  1   force =    -0.00127732   -0.01278280    3.30892126
     atom    8 type  1   force =     0.00094973   -0.01927114    0.74948651
     atom    9 type  1   force =    -0.00101171    0.01927858   -0.74818644
     atom   10 type  1   force =     0.00132184    0.01297342   -3.30979832
     atom   11 type  1   force =    -0.00435833   -0.04016838   -5.38251789
     atom   12 type  1   force =     0.00428628    0.01078317   -7.24126819
     atom   13 type  1   force =     0.00007889    0.11427727   -9.64217978
     atom   14 type  1   force =     0.00118705   -0.31785522  -11.95939059
     atom   15 type  1   force =    -0.00075098    0.22374857  -12.89371101
     atom   16 type  1   force =     0.00068525   -0.22409552   12.89450805
     atom   17 type  1   force =    -0.00119416    0.31812915   11.95861645
     atom   18 type  1   force =    -0.00000201   -0.11406349    9.63978500
     atom   19 type  1   force =    -0.00441893   -0.01083666    7.24343340
     atom   20 type  1   force =     0.00447895    0.03988744    5.38259469
     atom   21 type  1   force =    -0.00123198   -0.01279195    3.30889568
     atom   22 type  1   force =     0.00095677   -0.01928233    0.74950565
     atom   23 type  1   force =    -0.00101392    0.01927635   -0.74821460
     atom   24 type  1   force =     0.00135626    0.01297939   -3.30981788
     atom   25 type  1   force =    -0.00442542   -0.04018573   -5.38252527
     atom   26 type  1   force =     0.00426848    0.01077093   -7.24127293
     atom   27 type  1   force =     0.00008239    0.11428963   -9.64216926
     atom   28 type  1   force =     0.00119094   -0.31785682  -11.95938645
     The core correction contribution to forces
     atom    1 type  1   force =     0.00000000    0.00000000    0.00000000
     atom    2 type  1   force =     0.00000000    0.00000000    0.00000000
     atom    3 type  1   force =     0.00000000    0.00000000    0.00000000
     atom    4 type  1   force =     0.00000000    0.00000000    0.00000000
     atom    5 type  1   force =     0.00000000    0.00000000    0.00000000
     atom    6 type  1   force =     0.00000000    0.00000000    0.00000000
     atom    7 type  1   force =     0.00000000    0.00000000    0.00000000
     atom    8 type  1   force =     0.00000000    0.00000000    0.00000000
     atom    9 type  1   force =     0.00000000    0.00000000    0.00000000
     atom   10 type  1   force =     0.00000000    0.00000000    0.00000000
     atom   11 type  1   force =     0.00000000    0.00000000    0.00000000
     atom   12 type  1   force =     0.00000000    0.00000000    0.00000000
     atom   13 type  1   force =     0.00000000    0.00000000    0.00000000
     atom   14 type  1   force =     0.00000000    0.00000000    0.00000000
     atom   15 type  1   force =     0.00000000    0.00000000    0.00000000
     atom   16 type  1   force =     0.00000000    0.00000000    0.00000000
     atom   17 type  1   force =     0.00000000    0.00000000    0.00000000
     atom   18 type  1   force =     0.00000000    0.00000000    0.00000000
     atom   19 type  1   force =     0.00000000    0.00000000    0.00000000
     atom   20 type  1   force =     0.00000000    0.00000000    0.00000000
     atom   21 type  1   force =     0.00000000    0.00000000    0.00000000
     atom   22 type  1   force =     0.00000000    0.00000000    0.00000000
     atom   23 type  1   force =     0.00000000    0.00000000    0.00000000
     atom   24 type  1   force =     0.00000000    0.00000000    0.00000000
     atom   25 type  1   force =     0.00000000    0.00000000    0.00000000
     atom   26 type  1   force =     0.00000000    0.00000000    0.00000000
     atom   27 type  1   force =     0.00000000    0.00000000    0.00000000
     atom   28 type  1   force =     0.00000000    0.00000000    0.00000000
     The Hubbard contrib.    to forces
     atom    1 type  1   force =     0.00000000    0.00000000    0.00000000
     atom    2 type  1   force =     0.00000000    0.00000000    0.00000000
     atom    3 type  1   force =     0.00000000    0.00000000    0.00000000
     atom    4 type  1   force =     0.00000000    0.00000000    0.00000000
     atom    5 type  1   force =     0.00000000    0.00000000    0.00000000
     atom    6 type  1   force =     0.00000000    0.00000000    0.00000000
     atom    7 type  1   force =     0.00000000    0.00000000    0.00000000
     atom    8 type  1   force =     0.00000000    0.00000000    0.00000000
     atom    9 type  1   force =     0.00000000    0.00000000    0.00000000
     atom   10 type  1   force =     0.00000000    0.00000000    0.00000000
     atom   11 type  1   force =     0.00000000    0.00000000    0.00000000
     atom   12 type  1   force =     0.00000000    0.00000000    0.00000000
     atom   13 type  1   force =     0.00000000    0.00000000    0.00000000
     atom   14 type  1   force =     0.00000000    0.00000000    0.00000000
     atom   15 type  1   force =     0.00000000    0.00000000    0.00000000
     atom   16 type  1   force =     0.00000000    0.00000000    0.00000000
     atom   17 type  1   force =     0.00000000    0.00000000    0.00000000
     atom   18 type  1   force =     0.00000000    0.00000000    0.00000000
     atom   19 type  1   force =     0.00000000    0.00000000    0.00000000
     atom   20 type  1   force =     0.00000000    0.00000000    0.00000000
     atom   21 type  1   force =     0.00000000    0.00000000    0.00000000
     atom   22 type  1   force =     0.00000000    0.00000000    0.00000000
     atom   23 type  1   force =     0.00000000    0.00000000    0.00000000
     atom   24 type  1   force =     0.00000000    0.00000000    0.00000000
     atom   25 type  1   force =     0.00000000    0.00000000    0.00000000
     atom   26 type  1   force =     0.00000000    0.00000000    0.00000000
     atom   27 type  1   force =     0.00000000    0.00000000    0.00000000
     atom   28 type  1   force =     0.00000000    0.00000000    0.00000000
     The SCF correction term to forces
     atom    1 type  1   force =    -0.00000082    0.00000078   -0.00000941
     atom    2 type  1   force =     0.00000085   -0.00000071    0.00000853
     atom    3 type  1   force =    -0.00000108    0.00000090    0.00000103
     atom    4 type  1   force =     0.00000013    0.00000002    0.00000248
     atom    5 type  1   force =     0.00000005   -0.00000012    0.00000074
     atom    6 type  1   force =    -0.00000008    0.00000005    0.00000042
     atom    7 type  1   force =     0.00000001    0.00000000    0.00000031
     atom    8 type  1   force =     0.00000003   -0.00000009    0.00000011
     atom    9 type  1   force =    -0.00000003    0.00000008    0.00000000
     atom   10 type  1   force =    -0.00000003    0.00000004   -0.00000020
     atom   11 type  1   force =     0.00000007   -0.00000004   -0.00000033
     atom   12 type  1   force =    -0.00000003    0.00000011   -0.00000070
     atom   13 type  1   force =    -0.00000012   -0.00000004   -0.00000225
     atom   14 type  1   force =     0.00000108   -0.00000089   -0.00000096
     atom   15 type  1   force =    -0.00000082    0.00000079   -0.00000942
     atom   16 type  1   force =     0.00000085   -0.00000071    0.00000850
     atom   17 type  1   force =    -0.00000108    0.00000091    0.00000100
     atom   18 type  1   force =     0.00000013    0.00000002    0.00000247
     atom   19 type  1   force =     0.00000005   -0.00000012    0.00000073
     atom   20 type  1   force =    -0.00000009    0.00000005    0.00000041
     atom   21 type  1   force =     0.00000000    0.00000000    0.00000030
     atom   22 type  1   force =     0.00000003   -0.00000009    0.00000010
     atom   23 type  1   force =    -0.00000002    0.00000008   -0.00000000
     atom   24 type  1   force =    -0.00000002    0.00000003   -0.00000019
     atom   25 type  1   force =     0.00000008   -0.00000004   -0.00000033
     atom   26 type  1   force =    -0.00000004    0.00000012   -0.00000072
     atom   27 type  1   force =    -0.00000012   -0.00000004   -0.00000225
     atom   28 type  1   force =     0.00000108   -0.00000089   -0.00000096

     Total force =     0.001303     Total SCF correction =     0.000019
     Energy error            =      4.0E-06 Ry
     Gradient error          =      3.5E-04 Ry/Bohr

     bfgs converged in  34 scf cycles and  33 bfgs steps
     (criteria: energy <  1.0E-05 Ry, force <  3.9E-04 Ry/Bohr)

     End of BFGS Geometry Optimization

     Final energy             =    -421.1381171324 Ry

     File ./Li/Lithium.bfgs deleted, as requested
Begin final coordinates

ATOMIC_POSITIONS (angstrom)
Li               0.2980153419       -0.1250032868       31.7032759734
Li              -0.2988555661        4.8963316573       20.0859086636
Li               0.8227465570        2.1619737710       20.6526609083
Li               1.0472690264        7.0183737722       21.7649587168
Li               1.6565685909        4.1944064901       22.6949320631
Li               0.1011582341        1.6794602152       23.5453596263
Li              -0.1379807199        6.3157089332       24.4358799475
Li               0.9871702245        3.7481494403       25.5626793854
Li               1.9887878303        1.0219373904       26.2291109457
Li               2.1220599791        5.8748496712       27.3564719225
Li              -0.1002750021        3.0908901236       28.2461388090
Li               1.3183197969        0.5761817193       29.0952228476
Li               0.9357735770        5.1729430670       30.0270825237
Li               2.1506289640        2.6088984357       31.1381970542
Li               3.2729581210       -0.1250048201       31.7032756762
Li               2.6760235181        4.8963195877       20.0859310693
Li               3.7976903306        2.1619562829       20.6526535029
Li               4.0222157290        7.0184088480       21.7649742637
Li               4.6314441596        4.1943776024       22.6949758999
Li               3.0761462187        1.6795007071       23.5453652505
Li               2.8369602807        6.3157089206       24.4358885125
Li               3.9621090206        3.7481474475       25.5626348044
Li               4.9637181585        1.0219346412       26.2291060434
Li               5.0970045508        5.8748547337       27.3564821114
Li               2.8746297254        3.0908802883       28.2461473967
Li               4.2932432896        0.5761750387       29.0952321776
Li               3.9107098908        5.1729452326       30.0270843901
Li               5.1255627977        2.6089011072       31.1382008931
End final coordinates

     Writing all to output data dir ./Li/Lithium.save/ :
     XML data file

     General routines

     Parallel routines

     PAW routines

     Environ routines

   This run was terminated on:  23:41:25   4Jan2025

   JOB DONE.