     Program PWSCF v.7.4 starts on  5Jan2025 at 12:35:27

     Reading input from espresso.pwi
Warning: card &CELL ignored
Warning: card    PRESS_CONV_THR   = 0.1 ignored
Warning: card    CELL_DOFREE      = 'ALL' ignored
Warning: card / ignored
Warning: card &FCP ignored
Warning: card / ignored
Warning: card &RISM ignored
Warning: card / ignored

     Current dimensions of program PWSCF are:
     Max number of different atomic species (ntypx) = 10
     Max number of k-points (npk) =  40000
     Max angular momentum in pseudopotentials (lmaxx) =  4

     IMPORTANT: XC functional enforced from input :
     Exchange-correlation= PBE
                           (   1   4   3   4   0   0   0)
     Any further DFT definition will be discarded
     Please, verify this is what you really want

     Reading input from environ.in:
     * using ionic solvent mode
     * setting boundary derivatives method to SSCS default
     * setting electrolyte-boundary derivatives method to SSCS default

Environ Warning (1001): card EOF ignored

     Found identity + (  0.0000  0.5000  0.0000) symmetry
     This is a supercell, fractional translations are disabled

     R & G space division:  proc/nbgrp/npool/nimage =     256
     Subspace diagonalization in iterative solution of the eigenvalue problem:
     a serial algorithm will be used

     Using Slab Decomposition

     bravais-lattice index     =            6
     lattice parameter (alat)  =      12.9830  a.u.
     unit-cell volume          =   16640.2915 (a.u.)^3
     number of atoms/cell      =           32
     number of atomic types    =            1
     number of electrons       =        96.00
     number of Kohn-Sham states=           72
     kinetic-energy cutoff     =      80.0000  Ry
     charge density cutoff     =     800.0000  Ry
     scf convergence threshold =      1.0E-14
     mixing beta               =       0.2000
     number of iterations used =            8  local-TF  mixing
     Exchange-correlation= PBE
                           (   1   4   3   4   0   0   0)

                                  Environ Setup Summary

          O. Andreussi, I. Dabo and N. Marzari, J. Chem. Phys. 136, 064102 (2012)
          F. Nattino, M. Truscott, N. Marzari, and O. Andreussi, J. Chem. Phys. 150, 041722 (2019)

     in publications or presentations arising from this work.

     Parameters

     compensation onset threshold      =               0.1000E+00
     static permittivity               =                    89.90
     surface tension in input (dyn/cm) =                    37.30
     surface tension in internal units =               0.4792E-04

     Solvent Boundary

     solvent mode                      =                    ionic
     derivatives method                =                   lowmem
     electrolyte derivatives method    =                   lowmem
     numerical core for derivatives    =                      fft
     switching function adopted        =                     SCCS
     density limit for vacuum region   =               0.5000E-02
     density limit for bulk solvent    =               0.1000E-03
     soft-sphere radius mode           =                    bondi
     soft-sphere softness              =                     0.50
     alpha                             =                     1.32

     Electrostatic Setup

     electrostatic problem to solve    =                    modpb
     numerical solver adopted          =                   newton
     type of auxiliary density adopted =                     none
     numerical core for poisson        =                      fft
     adopting a nested solver scheme
     inner solver                      =                       cg
     inner core                        =                      fft
     type of pbc corrections           =                parabolic
     numerical core for corrections    =                      1da

     >>>>> Grand-Canonical SCF is activated <<<<<
     Initial Total Charge  =     0.000000 e
     Target Fermi Energy   =    -1.404000 eV
     Thr. of Fermi Energy  =     0.001000 eV
     Wave-shift of Kerker  =     0.400000 bohr^-1
     Wave-shift of Hartree =     1.500000 bohr^-1
     Mixing Rate of Fermi  =     0.050000

     celldm(1)=  12.983009  celldm(2)=   0.000000  celldm(3)=   7.603873
     celldm(4)=   0.000000  celldm(5)=   0.000000  celldm(6)=   0.000000

     crystal axes: (cart. coord. in units of alat)
               a(1) = (   1.000000   0.000000   0.000000 )
               a(2) = (   0.000000   1.000000   0.000000 )
               a(3) = (   0.000000   0.000000   7.603873 )

     reciprocal axes: (cart. coord. in units 2 pi/alat)
               b(1) = (  1.000000  0.000000  0.000000 )
               b(2) = (  0.000000  1.000000  0.000000 )
               b(3) = (  0.000000  0.000000  0.131512 )

     PseudoPot. # 1 for Li read from file:
     /work/e89/e89/ba3g18/Repos/Pseudopotentials/Pslibrary/Li.pbe-sl-kjpaw_psl.1.0.0.UPF
     MD5 check sum: 3f4d2cafebb47c6c3aa8ed472e6f074d
     Pseudo is Projector augmented-wave, Zval =  3.0
     Generated using 'atomic' code by A. Dal Corso  v.7.4
     Shape of augmentation charge: PSQ
     Using radial grid of 1017 points,  4 beta functions with:
                l(1) =   0
                l(2) =   0
                l(3) =   1
                l(4) =   1
     Q(r) pseudized with 0 coefficients

     atomic species   valence    mass     pseudopotential
     Li                3.00     6.94000     Li( 1.00)

      8 Sym. Ops. (no inversion) found

                                    s                        frac. trans.

      isym =  1     identity

 cryst.   s( 1) = (     1          0          0      )
                  (     0          1          0      )
                  (     0          0          1      )

 cart.    s( 1) = (  1.0000000  0.0000000  0.0000000 )
                  (  0.0000000  1.0000000  0.0000000 )
                  (  0.0000000  0.0000000  1.0000000 )

      isym =  2     180 deg rotation - cart. axis [0,0,1]

[...]

      isym =  4      90 deg rotation - cart. axis [0,0,1]

[...]

      isym =  5     inv. 180 deg rotation - cart. axis [0,1,0]

[...]

      isym =  8     inv. 180 deg rotation - cart. axis [1,-1,0]

 cryst.   s( 8) = (     0          1          0      )
                  (     1          0          0      )
                  (     0          0          1      )

 cart.    s( 8) = (  0.0000000  1.0000000  0.0000000 )
                  (  1.0000000  0.0000000  0.0000000 )
                  (  0.0000000  0.0000000  1.0000000 )

     point group C_4v (4mm)
     there are  5 classes
     the character table:

       E     2C4   C2    2s_v  2s_d
A_1    1.00  1.00  1.00  1.00  1.00
A_2    1.00  1.00  1.00 -1.00 -1.00
B_1    1.00 -1.00  1.00  1.00 -1.00
B_2    1.00 -1.00  1.00 -1.00  1.00
E      2.00  0.00 -2.00  0.00  0.00

     the symmetry operations in each class and the name of the first element:

     E        1
          identity
     2C4      3    4
           90 deg rotation - cart. axis [0,0,-1]
     C2       2
          180 deg rotation - cart. axis [0,0,1]
     2s_v     5    6
          inv. 180 deg rotation - cart. axis [0,1,0]
     2s_d     7    8
          inv. 180 deg rotation - cart. axis [1,1,0]

   Cartesian axes

     site n.     atom                  positions (alat units)
         1        Li     tau(   1) = (  -0.0000000  -0.0000000   3.1751110  )
         2        Li     tau(   2) = (   0.2500001   0.2500001   2.9131637  )
         3        Li     tau(   3) = (  -0.0000000  -0.0000000   3.6770733  )
         4        Li     tau(   4) = (   0.2499999   0.2499999   3.4231153  )
         5        Li     tau(   5) = (  -0.0000000  -0.0000000   4.1807506  )
         6        Li     tau(   6) = (   0.2499996   0.2499996   3.9265567  )
         7        Li     tau(   7) = (  -0.0000000  -0.0000000   4.6909380  )
         8        Li     tau(   8) = (   0.2500002   0.2500002   4.4288525  )
         9        Li     tau(   9) = (  -0.0000000   0.5000000   3.1751133  )
        10        Li     tau(  10) = (   0.2500001   0.7499999   2.9131637  )
        11        Li     tau(  11) = (  -0.0000000   0.5000000   3.6770700  )
        12        Li     tau(  12) = (   0.2499999   0.7500001   3.4231153  )
        13        Li     tau(  13) = (  -0.0000000   0.5000000   4.1807588  )
        14        Li     tau(  14) = (   0.2499996   0.7500004   3.9265567  )
        15        Li     tau(  15) = (  -0.0000000   0.5000000   4.6909359  )
        16        Li     tau(  16) = (   0.2500002   0.7499998   4.4288525  )
        17        Li     tau(  17) = (   0.5000000  -0.0000000   3.1751133  )
        18        Li     tau(  18) = (   0.7499999   0.2500001   2.9131637  )
        19        Li     tau(  19) = (   0.5000000  -0.0000000   3.6770700  )
        20        Li     tau(  20) = (   0.7500001   0.2499999   3.4231153  )
        21        Li     tau(  21) = (   0.5000000  -0.0000000   4.1807588  )
        22        Li     tau(  22) = (   0.7500004   0.2499996   3.9265567  )
        23        Li     tau(  23) = (   0.5000000  -0.0000000   4.6909359  )
        24        Li     tau(  24) = (   0.7499998   0.2500002   4.4288525  )
        25        Li     tau(  25) = (   0.5000000   0.5000000   3.1751126  )
        26        Li     tau(  26) = (   0.7499999   0.7499999   2.9131637  )
        27        Li     tau(  27) = (   0.5000000   0.5000000   3.6770680  )
        28        Li     tau(  28) = (   0.7500001   0.7500001   3.4231153  )
        29        Li     tau(  29) = (   0.5000000   0.5000000   4.1807550  )
        30        Li     tau(  30) = (   0.7500004   0.7500004   3.9265567  )
        31        Li     tau(  31) = (   0.5000000   0.5000000   4.6909365  )
        32        Li     tau(  32) = (   0.7499998   0.7499998   4.4288525  )

   Crystallographic axes

     site n.     atom                  positions (cryst. coord.)
         1        Li     tau(   1) = ( -0.0000000 -0.0000000  0.4175650  )
         2        Li     tau(   2) = (  0.2500001  0.2500001  0.3831158  )
         3        Li     tau(   3) = ( -0.0000000 -0.0000000  0.4835790  )
         4        Li     tau(   4) = (  0.2499999  0.2499999  0.4501805  )
         5        Li     tau(   5) = ( -0.0000000 -0.0000000  0.5498186  )
         6        Li     tau(   6) = (  0.2499996  0.2499996  0.5163890  )
         7        Li     tau(   7) = ( -0.0000000 -0.0000000  0.6169143  )
         8        Li     tau(   8) = (  0.2500002  0.2500002  0.5824469  )
         9        Li     tau(   9) = ( -0.0000000  0.5000000  0.4175653  )
        10        Li     tau(  10) = (  0.2500001  0.7499999  0.3831158  )
        11        Li     tau(  11) = ( -0.0000000  0.5000000  0.4835786  )
        12        Li     tau(  12) = (  0.2499999  0.7500001  0.4501805  )
        13        Li     tau(  13) = ( -0.0000000  0.5000000  0.5498196  )
        14        Li     tau(  14) = (  0.2499996  0.7500004  0.5163890  )
        15        Li     tau(  15) = ( -0.0000000  0.5000000  0.6169140  )
        16        Li     tau(  16) = (  0.2500002  0.7499998  0.5824469  )
[...]
     atom   12 type  1   force =    -0.00000025    0.00000025   -0.00028191
     atom   13 type  1   force =     0.00000000    0.00000000    0.00025760
     atom   14 type  1   force =     0.00000053   -0.00000053    0.00002941
     atom   15 type  1   force =     0.00000000    0.00000000    0.00007344
     atom   16 type  1   force =    -0.00000030    0.00000030   -0.00042112
     atom   17 type  1   force =     0.00000000    0.00000000    0.00042444
     atom   18 type  1   force =    -0.00000003    0.00000003   -0.00009227
     atom   19 type  1   force =     0.00000000    0.00000000    0.00000957
     atom   20 type  1   force =     0.00000025   -0.00000025   -0.00028191
     atom   21 type  1   force =     0.00000000    0.00000000    0.00025760
     atom   22 type  1   force =    -0.00000053    0.00000053    0.00002941
     atom   23 type  1   force =     0.00000000    0.00000000    0.00007344
     atom   24 type  1   force =     0.00000030   -0.00000030   -0.00042112
     atom   25 type  1   force =     0.00000000    0.00000000    0.00042475
     atom   26 type  1   force =    -0.00000003   -0.00000003   -0.00009227
     atom   27 type  1   force =     0.00000000    0.00000000    0.00001005
     atom   28 type  1   force =     0.00000025    0.00000025   -0.00028191
     atom   29 type  1   force =     0.00000000    0.00000000    0.00025893
     atom   30 type  1   force =    -0.00000053   -0.00000053    0.00002941
     atom   31 type  1   force =     0.00000000    0.00000000    0.00007312
     atom   32 type  1   force =     0.00000030    0.00000030   -0.00042112
     The non-local contrib.  to forces
     atom    1 type  1   force =     0.00000000    0.00000000   -0.00193982
     atom    2 type  1   force =     0.00000004    0.00000004   -0.03336764
     atom    3 type  1   force =     0.00000000    0.00000000    0.00369491
     atom    4 type  1   force =    -0.00000042   -0.00000042    0.00000320
     atom    5 type  1   force =     0.00000000    0.00000000   -0.00001158
     atom    6 type  1   force =     0.00000089    0.00000089   -0.00363781
     atom    7 type  1   force =     0.00000000    0.00000000    0.03334698
     atom    8 type  1   force =    -0.00000049   -0.00000049    0.00191178
     atom    9 type  1   force =     0.00000000    0.00000000   -0.00194024
     atom   10 type  1   force =     0.00000004   -0.00000004   -0.03336764
     atom   11 type  1   force =     0.00000000    0.00000000    0.00369806
     atom   12 type  1   force =    -0.00000042    0.00000042    0.00000320
     atom   13 type  1   force =     0.00000000    0.00000000   -0.00001452
     atom   14 type  1   force =     0.00000089   -0.00000089   -0.00363781
     atom   15 type  1   force =     0.00000000    0.00000000    0.03334914
     atom   16 type  1   force =    -0.00000049    0.00000049    0.00191178
     atom   17 type  1   force =     0.00000000    0.00000000   -0.00194024
     atom   18 type  1   force =    -0.00000004    0.00000004   -0.03336764
     atom   19 type  1   force =     0.00000000    0.00000000    0.00369806
     atom   20 type  1   force =     0.00000042   -0.00000042    0.00000320
     atom   21 type  1   force =     0.00000000    0.00000000   -0.00001452
     atom   22 type  1   force =    -0.00000089    0.00000089   -0.00363781
     atom   23 type  1   force =     0.00000000    0.00000000    0.03334914
     atom   24 type  1   force =     0.00000049   -0.00000049    0.00191178
     atom   25 type  1   force =     0.00000000    0.00000000   -0.00194056
     atom   26 type  1   force =    -0.00000004   -0.00000004   -0.03336764
     atom   27 type  1   force =     0.00000000    0.00000000    0.00369735
     atom   28 type  1   force =     0.00000042    0.00000042    0.00000320
     atom   29 type  1   force =     0.00000000    0.00000000   -0.00001418
     atom   30 type  1   force =    -0.00000089   -0.00000089   -0.00363781
     atom   31 type  1   force =     0.00000000    0.00000000    0.03334799
     atom   32 type  1   force =     0.00000049    0.00000049    0.00191178
     The ionic contribution  to forces
     atom    1 type  1   force =    -0.00000001   -0.00000001   -9.85218329
     atom    2 type  1   force =     0.00000021    0.00000021  -13.49109991
     atom    3 type  1   force =    -0.00000001   -0.00000001   -1.96240208
     atom    4 type  1   force =    -0.00000630   -0.00000630   -5.93418921
     atom    5 type  1   force =    -0.00000000   -0.00000000    5.93474660
     atom    6 type  1   force =     0.00001634    0.00001634    1.96322079
     atom    7 type  1   force =    -0.00000001   -0.00000001   13.49029686
     atom    8 type  1   force =    -0.00000821   -0.00000821    9.85157375
     atom    9 type  1   force =    -0.00000001    0.00000001   -9.85216149
     atom   10 type  1   force =     0.00000021   -0.00000021  -13.49109988
     atom   11 type  1   force =    -0.00000001    0.00000001   -1.96241807
     atom   12 type  1   force =    -0.00000630    0.00000631   -5.93418923
     atom   13 type  1   force =    -0.00000000   -0.00000000    5.93481949
     atom   14 type  1   force =     0.00001634   -0.00001634    1.96322079
     atom   15 type  1   force =    -0.00000001    0.00000001   13.49029318
     atom   16 type  1   force =    -0.00000821    0.00000822    9.85157377
     atom   17 type  1   force =     0.00000001   -0.00000001   -9.85216149
     atom   18 type  1   force =    -0.00000021    0.00000021  -13.49109988
     atom   19 type  1   force =     0.00000001   -0.00000001   -1.96241807
     atom   20 type  1   force =     0.00000631   -0.00000630   -5.93418923
     atom   21 type  1   force =    -0.00000000   -0.00000000    5.93481949
     atom   22 type  1   force =    -0.00001634    0.00001634    1.96322079
     atom   23 type  1   force =     0.00000001   -0.00000001   13.49029318
     atom   24 type  1   force =     0.00000822   -0.00000821    9.85157377
     atom   25 type  1   force =     0.00000001    0.00000001   -9.85217145
     atom   26 type  1   force =    -0.00000021   -0.00000021  -13.49109986
     atom   27 type  1   force =     0.00000001    0.00000001   -1.96243744
     atom   28 type  1   force =     0.00000631    0.00000631   -5.93418923
     atom   29 type  1   force =    -0.00000000   -0.00000000    5.93476610
     atom   30 type  1   force =    -0.00001634   -0.00001634    1.96322078
     atom   31 type  1   force =     0.00000001    0.00000001   13.49029669
     atom   32 type  1   force =     0.00000822    0.00000822    9.85157379
     The local contribution  to forces
     atom    1 type  1   force =     0.00000407    0.00000407    9.67461292
     atom    2 type  1   force =     0.00000443    0.00000443   13.31006398
     atom    3 type  1   force =     0.00000407    0.00000407    1.92357805
     atom    4 type  1   force =     0.00001115    0.00001115    5.82706168
     atom    5 type  1   force =     0.00000407    0.00000407   -5.82726692
     atom    6 type  1   force =    -0.00001222   -0.00001222   -1.92410102
     atom    7 type  1   force =     0.00000349    0.00000349  -13.30886467
     atom    8 type  1   force =     0.00001282    0.00001282   -9.67359340
     atom    9 type  1   force =     0.00000407    0.00000499    9.67459158
     atom   10 type  1   force =     0.00000443    0.00000499   13.31006279
     atom   11 type  1   force =     0.00000407    0.00000441    1.92359171
     atom   12 type  1   force =     0.00001115   -0.00000175    5.82706228
     atom   13 type  1   force =     0.00000407    0.00000383   -5.82733798
     atom   14 type  1   force =    -0.00001222    0.00002104   -1.92410102
     atom   15 type  1   force =     0.00000349    0.00000442  -13.30886136
     atom   16 type  1   force =     0.00001282   -0.00000400   -9.67359400
     atom   17 type  1   force =     0.00000499    0.00000407    9.67459158
     atom   18 type  1   force =     0.00000499    0.00000443   13.31006279
     atom   19 type  1   force =     0.00000441    0.00000407    1.92359171
     atom   20 type  1   force =    -0.00000175    0.00001115    5.82706228
     atom   21 type  1   force =     0.00000383    0.00000407   -5.82733798
     atom   22 type  1   force =     0.00002104   -0.00001222   -1.92410102
     atom   23 type  1   force =     0.00000442    0.00000349  -13.30886136
     atom   24 type  1   force =    -0.00000400    0.00001282   -9.67359400
     atom   25 type  1   force =     0.00000499    0.00000499    9.67460195
     atom   26 type  1   force =     0.00000499    0.00000499   13.31006219
     atom   27 type  1   force =     0.00000441    0.00000441    1.92361173
     atom   28 type  1   force =    -0.00000175   -0.00000175    5.82706228
     atom   29 type  1   force =     0.00000383    0.00000383   -5.82728463
     atom   30 type  1   force =     0.00002104    0.00002104   -1.92410102
     atom   31 type  1   force =     0.00000442    0.00000442  -13.30886414
     atom   32 type  1   force =    -0.00000400   -0.00000400   -9.67359400
     The core correction contribution to forces
     atom    1 type  1   force =     0.00000000    0.00000000    0.00000000
     atom    2 type  1   force =     0.00000000    0.00000000    0.00000000
     atom    3 type  1   force =     0.00000000    0.00000000    0.00000000
     atom    4 type  1   force =     0.00000000    0.00000000    0.00000000
     atom    5 type  1   force =     0.00000000    0.00000000    0.00000000
     atom    6 type  1   force =     0.00000000    0.00000000    0.00000000
     atom    7 type  1   force =     0.00000000    0.00000000    0.00000000
     atom    8 type  1   force =     0.00000000    0.00000000    0.00000000
     atom    9 type  1   force =     0.00000000    0.00000000    0.00000000
     atom   10 type  1   force =     0.00000000    0.00000000    0.00000000
     atom   11 type  1   force =     0.00000000    0.00000000    0.00000000
     atom   12 type  1   force =     0.00000000    0.00000000    0.00000000
     atom   13 type  1   force =     0.00000000    0.00000000    0.00000000
     atom   14 type  1   force =     0.00000000    0.00000000    0.00000000
     atom   15 type  1   force =     0.00000000    0.00000000    0.00000000
     atom   16 type  1   force =     0.00000000    0.00000000    0.00000000
     atom   17 type  1   force =     0.00000000    0.00000000    0.00000000
     atom   18 type  1   force =     0.00000000    0.00000000    0.00000000
     atom   19 type  1   force =     0.00000000    0.00000000    0.00000000
     atom   20 type  1   force =     0.00000000    0.00000000    0.00000000
     atom   21 type  1   force =     0.00000000    0.00000000    0.00000000
     atom   22 type  1   force =     0.00000000    0.00000000    0.00000000
     atom   23 type  1   force =     0.00000000    0.00000000    0.00000000
     atom   24 type  1   force =     0.00000000    0.00000000    0.00000000
     atom   25 type  1   force =     0.00000000    0.00000000    0.00000000
     atom   26 type  1   force =     0.00000000    0.00000000    0.00000000
     atom   27 type  1   force =     0.00000000    0.00000000    0.00000000
     atom   28 type  1   force =     0.00000000    0.00000000    0.00000000
     atom   29 type  1   force =     0.00000000    0.00000000    0.00000000
     atom   30 type  1   force =     0.00000000    0.00000000    0.00000000
     atom   31 type  1   force =     0.00000000    0.00000000    0.00000000
     atom   32 type  1   force =     0.00000000    0.00000000    0.00000000
     The Hubbard contrib.    to forces
     atom    1 type  1   force =     0.00000000    0.00000000    0.00000000
     atom    2 type  1   force =     0.00000000    0.00000000    0.00000000
     atom    3 type  1   force =     0.00000000    0.00000000    0.00000000
     atom    4 type  1   force =     0.00000000    0.00000000    0.00000000
     atom    5 type  1   force =     0.00000000    0.00000000    0.00000000
     atom    6 type  1   force =     0.00000000    0.00000000    0.00000000
     atom    7 type  1   force =     0.00000000    0.00000000    0.00000000
     atom    8 type  1   force =     0.00000000    0.00000000    0.00000000
     atom    9 type  1   force =     0.00000000    0.00000000    0.00000000
     atom   10 type  1   force =     0.00000000    0.00000000    0.00000000
     atom   11 type  1   force =     0.00000000    0.00000000    0.00000000
     atom   12 type  1   force =     0.00000000    0.00000000    0.00000000
     atom   13 type  1   force =     0.00000000    0.00000000    0.00000000
     atom   14 type  1   force =     0.00000000    0.00000000    0.00000000
     atom   15 type  1   force =     0.00000000    0.00000000    0.00000000
     atom   16 type  1   force =     0.00000000    0.00000000    0.00000000
     atom   17 type  1   force =     0.00000000    0.00000000    0.00000000
     atom   18 type  1   force =     0.00000000    0.00000000    0.00000000
     atom   19 type  1   force =     0.00000000    0.00000000    0.00000000
     atom   20 type  1   force =     0.00000000    0.00000000    0.00000000
     atom   21 type  1   force =     0.00000000    0.00000000    0.00000000
     atom   22 type  1   force =     0.00000000    0.00000000    0.00000000
     atom   23 type  1   force =     0.00000000    0.00000000    0.00000000
     atom   24 type  1   force =     0.00000000    0.00000000    0.00000000
     atom   25 type  1   force =     0.00000000    0.00000000    0.00000000
     atom   26 type  1   force =     0.00000000    0.00000000    0.00000000
     atom   27 type  1   force =     0.00000000    0.00000000    0.00000000
     atom   28 type  1   force =     0.00000000    0.00000000    0.00000000
     atom   29 type  1   force =     0.00000000    0.00000000    0.00000000
     atom   30 type  1   force =     0.00000000    0.00000000    0.00000000
     atom   31 type  1   force =     0.00000000    0.00000000    0.00000000
     atom   32 type  1   force =     0.00000000    0.00000000    0.00000000
     The SCF correction term to forces
     atom    1 type  1   force =     0.00000000    0.00000000    0.00000004
     atom    2 type  1   force =    -0.00000000   -0.00000000    0.00000007
     atom    3 type  1   force =     0.00000000    0.00000000    0.00000005
     atom    4 type  1   force =    -0.00000000   -0.00000000    0.00000003
     atom    5 type  1   force =     0.00000000    0.00000000    0.00000005
     atom    6 type  1   force =    -0.00000000   -0.00000000    0.00000008
     atom    7 type  1   force =     0.00000000    0.00000000   -0.00000007
     atom    8 type  1   force =     0.00000000    0.00000000    0.00000000
     atom    9 type  1   force =     0.00000000   -0.00000000    0.00000004
     atom   10 type  1   force =    -0.00000000    0.00000000    0.00000007
     atom   11 type  1   force =     0.00000000    0.00000000    0.00000005
     atom   12 type  1   force =    -0.00000000    0.00000000    0.00000003
     atom   13 type  1   force =     0.00000000    0.00000000    0.00000006
     atom   14 type  1   force =    -0.00000000    0.00000000    0.00000008
     atom   15 type  1   force =    -0.00000000    0.00000000   -0.00000007
     atom   16 type  1   force =     0.00000000   -0.00000000    0.00000000
     atom   17 type  1   force =     0.00000000    0.00000000    0.00000004
     atom   18 type  1   force =     0.00000000   -0.00000000    0.00000007
     atom   19 type  1   force =    -0.00000000   -0.00000000    0.00000005
     atom   20 type  1   force =     0.00000000   -0.00000000    0.00000003
     atom   21 type  1   force =     0.00000000    0.00000000    0.00000006
     atom   22 type  1   force =     0.00000000   -0.00000000    0.00000008
     atom   23 type  1   force =     0.00000000   -0.00000000   -0.00000007
     atom   24 type  1   force =    -0.00000000    0.00000000    0.00000000
     atom   25 type  1   force =     0.00000000   -0.00000000    0.00000004
     atom   26 type  1   force =     0.00000000    0.00000000    0.00000007
     atom   27 type  1   force =    -0.00000000   -0.00000000    0.00000005
     atom   28 type  1   force =     0.00000000    0.00000000    0.00000003
     atom   29 type  1   force =    -0.00000000   -0.00000000    0.00000006
     atom   30 type  1   force =     0.00000000    0.00000000    0.00000008
     atom   31 type  1   force =     0.00000000   -0.00000000   -0.00000007
     atom   32 type  1   force =    -0.00000000   -0.00000000    0.00000000

     Total force =     0.001441     Total SCF correction =     0.000000

     Writing all to output data dir ./Li/Lithium.save/ :
     XML data file

     General routines

     Parallel routines

     PAW routines

     Environ routines

   This run was terminated on:  13: 2:18   5Jan2025

   JOB DONE.