     Program PWSCF v.7.4 starts on 26Dec2024 at  2:17:33

     Reading input from espresso.pwi
Warning: card &CELL ignored
Warning: card    PRESS_CONV_THR   = 0.1 ignored
Warning: card    CELL_DOFREE      = 'ALL' ignored
Warning: card / ignored
Warning: card &FCP ignored
Warning: card / ignored
Warning: card &RISM ignored
Warning: card / ignored

     Current dimensions of program PWSCF are:
     Max number of different atomic species (ntypx) = 10
     Max number of k-points (npk) =  40000
     Max angular momentum in pseudopotentials (lmaxx) =  4

     IMPORTANT: XC functional enforced from input :
     Exchange-correlation= PBE
                           (   1   4   3   4   0   0   0)
     Any further DFT definition will be discarded
     Please, verify this is what you really want

     Reading input from environ.in:
     * using ionic solvent mode
     * setting boundary derivatives method to SSCS default
     * setting electrolyte-boundary derivatives method to SSCS default

Environ Warning (1001): card EOF ignored

     Found identity + ( -0.5000 -0.5000  0.0000) symmetry
     This is a supercell, fractional translations are disabled

     R & G space division:  proc/nbgrp/npool/nimage =     192
     Subspace diagonalization in iterative solution of the eigenvalue problem:
     a serial algorithm will be used

     Using Slab Decomposition

     bravais-lattice index     =            4
     lattice parameter (alat)  =      18.3607  a.u.
     unit-cell volume          =   28251.3759 (a.u.)^3
     number of atoms/cell      =           48
     number of atomic types    =            1
     number of electrons       =       144.00
     number of Kohn-Sham states=          108
     kinetic-energy cutoff     =      80.0000  Ry
     charge density cutoff     =     800.0000  Ry
     scf convergence threshold =      1.0E-14
     mixing beta               =       0.2000
     number of iterations used =            8  local-TF  mixing
     Exchange-correlation= PBE
                           (   1   4   3   4   0   0   0)

                                  Environ Setup Summary

          O. Andreussi, I. Dabo and N. Marzari, J. Chem. Phys. 136, 064102 (2012)
          F. Nattino, M. Truscott, N. Marzari, and O. Andreussi, J. Chem. Phys. 150, 041722 (2019)

     in publications or presentations arising from this work.

     Parameters

     compensation onset threshold      =               0.1000E+00
     static permittivity               =                    89.90
     surface tension in input (dyn/cm) =                    37.30
     surface tension in internal units =               0.4792E-04

     Solvent Boundary

     solvent mode                      =                    ionic
     derivatives method                =                   lowmem
     electrolyte derivatives method    =                   lowmem
     numerical core for derivatives    =                      fft
     switching function adopted        =                     SCCS
     density limit for vacuum region   =               0.5000E-02
     density limit for bulk solvent    =               0.1000E-03
     soft-sphere radius mode           =                    bondi
     soft-sphere softness              =                     0.50
     alpha                             =                     1.32

     Electrostatic Setup

     electrostatic problem to solve    =                    modpb
     numerical solver adopted          =                   newton
     type of auxiliary density adopted =                     none
     numerical core for poisson        =                      fft
     adopting a nested solver scheme
     inner solver                      =                       cg
     inner core                        =                      fft
     type of pbc corrections           =                parabolic
     numerical core for corrections    =                      1da

     celldm(1)=  18.360747  celldm(2)=   0.000000  celldm(3)=   5.270332
     celldm(4)=   0.000000  celldm(5)=   0.000000  celldm(6)=   0.000000

     crystal axes: (cart. coord. in units of alat)
               a(1) = (   1.000000   0.000000   0.000000 )
               a(2) = (  -0.500000   0.866025   0.000000 )
               a(3) = (   0.000000   0.000000   5.270332 )

     reciprocal axes: (cart. coord. in units 2 pi/alat)
               b(1) = (  1.000000  0.577350  0.000000 )
               b(2) = (  0.000000  1.154701  0.000000 )
               b(3) = (  0.000000  0.000000  0.189741 )

     PseudoPot. # 1 for Li read from file:
     /home/ba3g18/Repos/Pseudopotentials/pslibrary.1.0.0/pbe/PSEUDOPOTENTIALS/Li.pbe-sl-kjpaw_psl.1.0.0.UPF
     MD5 check sum: 3f4d2cafebb47c6c3aa8ed472e6f074d
     Pseudo is Projector augmented-wave, Zval =  3.0
     Generated using 'atomic' code by A. Dal Corso  v.7.4
     Shape of augmentation charge: PSQ
     Using radial grid of 1017 points,  4 beta functions with:
                l(1) =   0
                l(2) =   0
                l(3) =   1
                l(4) =   1
     Q(r) pseudized with 0 coefficients

     atomic species   valence    mass     pseudopotential
     Li                3.00     6.94000     Li( 1.00)

      2 Sym. Ops. (no inversion) found

                                    s                        frac. trans.

      isym =  1     identity

 cryst.   s( 1) = (     1          0          0      )
                  (     0          1          0      )
                  (     0          0          1      )

 cart.    s( 1) = (  1.0000000  0.0000000  0.0000000 )
                  (  0.0000000  1.0000000  0.0000000 )
                  (  0.0000000  0.0000000  1.0000000 )

      isym =  2     inv. 180 deg rotation - cart. axis [1,0,0]

 cryst.   s( 2) = (    -1          0          0      )
                  (     1          1          0      )
                  (     0          0          1      )

 cart.    s( 2) = ( -1.0000000  0.0000000  0.0000000 )
                  (  0.0000000  1.0000000  0.0000000 )
                  (  0.0000000  0.0000000  1.0000000 )

     point group C_s (m)
     there are  2 classes
     the character table:

       E     s
A'     1.00  1.00
A''    1.00 -1.00

     the symmetry operations in each class and the name of the first element:

     E        1
          identity
     s        2
          inv. 180 deg rotation - cart. axis [1,0,0]

   Cartesian axes

     site n.     atom                  positions (alat units)
         1        Li     tau(   1) = (  -0.0000000   0.0000008   2.5800986  )
         2        Li     tau(   2) = (   0.2500002   0.1443435   2.1910453  )
         3        Li     tau(   3) = (   0.5000000   0.2886790   2.3752607  )
         4        Li     tau(   4) = (   0.0000000   0.0000050   2.2671989  )
         5        Li     tau(   5) = (   0.2500001   0.1443400   2.4856510  )
         6        Li     tau(   6) = (   0.5000000   0.2886804   2.0668100  )
         7        Li     tau(   7) = (   0.0000000  -0.0000069   3.2035214  )
         8        Li     tau(   8) = (   0.2500000   0.1443353   2.7846820  )
         9        Li     tau(   9) = (   0.5000000   0.2886697   3.0031325  )
        10        Li     tau(  10) = (  -0.0000000  -0.0000041   2.8950708  )
        11        Li     tau(  11) = (   0.2500002   0.1443322   3.0792883  )
        12        Li     tau(  12) = (   0.5000000   0.2886741   2.6902328  )
        13        Li     tau(  13) = (   0.2499999   0.4330137   2.5800988  )
        14        Li     tau(  14) = (   0.5000000   0.5773555   2.1910441  )
        15        Li     tau(  15) = (   0.7499999   0.7216919   2.3752608  )
        16        Li     tau(  16) = (   0.2499998   0.4330182   2.2671991  )
        17        Li     tau(  17) = (   0.5000000   0.5773525   2.4856502  )
        18        Li     tau(  18) = (   0.7499992   0.7216950   2.0668102  )
        19        Li     tau(  19) = (   0.2499993   0.4330078   3.2035216  )
        20        Li     tau(  20) = (   0.5000000   0.5773478   2.7846811  )
        21        Li     tau(  21) = (   0.7499998   0.7216829   3.0031327  )
        22        Li     tau(  22) = (   0.2499999   0.4330089   2.8950709  )
        23        Li     tau(  23) = (   0.5000000   0.5773442   3.0792870  )
        24        Li     tau(  24) = (   0.7499999   0.7216871   2.6902330  )
        25        Li     tau(  25) = (   0.5000000   0.0000006   2.5800987  )
        26        Li     tau(  26) = (   0.7499998   0.1443435   2.1910453  )
        27        Li     tau(  27) = (   1.0000000   0.2886789   2.3752608  )
        28        Li     tau(  28) = (   0.5000000   0.0000048   2.2671990  )
        29        Li     tau(  29) = (   0.7499999   0.1443400   2.4856510  )
        30        Li     tau(  30) = (   1.0000000   0.2886796   2.0668101  )
        31        Li     tau(  31) = (   0.5000000  -0.0000076   3.2035215  )
        32        Li     tau(  32) = (   0.7499999   0.1443353   2.7846820  )
        33        Li     tau(  33) = (   1.0000000   0.2886695   3.0031326  )
        34        Li     tau(  34) = (   0.5000000  -0.0000042   2.8950709  )
        35        Li     tau(  35) = (   0.7499998   0.1443322   3.0792883  )
        36        Li     tau(  36) = (   1.0000000   0.2886740   2.6902329  )
        37        Li     tau(  37) = (   0.7500001   0.4330137   2.5800988  )
        38        Li     tau(  38) = (   1.0000000   0.5773558   2.1910427  )
        39        Li     tau(  39) = (   1.2500001   0.7216919   2.3752608  )
        40        Li     tau(  40) = (   0.7500002   0.4330182   2.2671991  )
        41        Li     tau(  41) = (   1.0000000   0.5773526   2.4856491  )
        42        Li     tau(  42) = (   1.2500008   0.7216951   2.0668102  )
        43        Li     tau(  43) = (   0.7500007   0.4330078   3.2035216  )
        44        Li     tau(  44) = (   1.0000000   0.5773479   2.7846801  )
        45        Li     tau(  45) = (   1.2500002   0.7216829   3.0031327  )
        46        Li     tau(  46) = (   0.7500001   0.4330089   2.8950709  )
        47        Li     tau(  47) = (   1.0000000   0.5773444   3.0792857  )
        48        Li     tau(  48) = (   1.2500001   0.7216871   2.6902330  )

   Crystallographic axes

     site n.     atom                  positions (cryst. coord.)
         1        Li     tau(   1) = (  0.0000005  0.0000009  0.4895515  )
         2        Li     tau(   2) = (  0.3333370  0.1666736  0.4157320  )
         3        Li     tau(   3) = (  0.6666689  0.3333378  0.4506853  )
         4        Li     tau(   4) = (  0.0000029  0.0000058  0.4301815  )
         5        Li     tau(   5) = (  0.3333348  0.1666695  0.4716309  )
         6        Li     tau(   6) = (  0.6666697  0.3333394  0.3921594  )
         7        Li     tau(   7) = ( -0.0000040 -0.0000079  0.6078406  )
         8        Li     tau(   8) = (  0.3333321  0.1666640  0.5283694  )
         9        Li     tau(   9) = (  0.6666635  0.3333271  0.5698185  )
        10        Li     tau(  10) = ( -0.0000024 -0.0000047  0.5493147  )
        11        Li     tau(  11) = (  0.3333304  0.1666605  0.5842684  )
        12        Li     tau(  12) = (  0.6666661  0.3333322  0.5104485  )
[...]
     atom   27 type  1   force =     0.00000006    0.00000271   -5.96336899
     atom   28 type  1   force =    -0.00000002   -0.00000327   -8.61669916
     atom   29 type  1   force =    -0.00000086    0.00000079   -3.44229475
     atom   30 type  1   force =     0.00000006    0.00000529  -12.40433096
     atom   31 type  1   force =     0.00000000    0.00000645   12.40433040
     atom   32 type  1   force =    -0.00000077    0.00000158    3.44232911
     atom   33 type  1   force =     0.00000003   -0.00000023    8.61669918
     atom   34 type  1   force =    -0.00000000    0.00000428    5.96336851
     atom   35 type  1   force =    -0.00000198    0.00000391   10.34545452
     atom   36 type  1   force =     0.00000005    0.00000071    1.26953065
     atom   37 type  1   force =    -0.00000016   -0.00000059   -1.26952970
     atom   38 type  1   force =     0.00000005   -0.00000259  -10.34546942
     atom   39 type  1   force =    -0.00000178   -0.00000330   -5.96336779
     atom   40 type  1   force =     0.00000071   -0.00000027   -8.61669973
     atom   41 type  1   force =     0.00000004   -0.00000110   -3.44234137
     atom   42 type  1   force =    -0.00000283   -0.00000503  -12.40432979
     atom   43 type  1   force =    -0.00000248   -0.00000366   12.40433175
     atom   44 type  1   force =     0.00000003   -0.00000038    3.44228276
     atom   45 type  1   force =     0.00000069    0.00000275    8.61669814
     atom   46 type  1   force =    -0.00000150   -0.00000180    5.96336998
     atom   47 type  1   force =     0.00000002   -0.00000142   10.34539872
     atom   48 type  1   force =    -0.00000032   -0.00000013    1.26953196
     The local contribution  to forces
     atom    1 type  1   force =     0.00000058   -0.00000005    1.27164647
     atom    2 type  1   force =    -0.00000034   -0.00000362   10.37505924
     atom    3 type  1   force =     0.00000196   -0.00000106    5.95452889
     atom    4 type  1   force =    -0.00000058    0.00000237    8.61119520
     atom    5 type  1   force =     0.00000105   -0.00000120    3.43897513
     atom    6 type  1   force =    -0.00000329   -0.00000304   12.51309473
     atom    7 type  1   force =    -0.00000000   -0.00000328  -12.51309127
     atom    8 type  1   force =     0.00000115   -0.00000136   -3.43900555
     atom    9 type  1   force =     0.00000196   -0.00000034   -8.61119818
     atom   10 type  1   force =     0.00000058   -0.00000236   -5.95452592
     atom   11 type  1   force =    -0.00000009   -0.00000403  -10.37509638
     atom   12 type  1   force =     0.00000138   -0.00000037   -1.27164292
     atom   13 type  1   force =     0.00000208    0.00000097    1.27164325
     atom   14 type  1   force =     0.00000312    0.00000514   10.37508145
     atom   15 type  1   force =     0.00000174    0.00000344    5.95452678
     atom   16 type  1   force =     0.00000307    0.00000073    8.61119778
     atom   17 type  1   force =     0.00000196    0.00000189    3.43899452
     atom   18 type  1   force =     0.00000052    0.00000802   12.51309234
     atom   19 type  1   force =    -0.00000048    0.00000508  -12.51309443
     atom   20 type  1   force =     0.00000254    0.00000161   -3.43898463
     atom   21 type  1   force =     0.00000437   -0.00000296   -8.61119561
     atom   22 type  1   force =     0.00000041    0.00000218   -5.95452883
     atom   23 type  1   force =     0.00000254    0.00000415  -10.37506907
     atom   24 type  1   force =     0.00000298    0.00000038   -1.27164555
     atom   25 type  1   force =     0.00000254   -0.00000028    1.27164505
     atom   26 type  1   force =     0.00000426   -0.00000245   10.37505016
     atom   27 type  1   force =     0.00000392   -0.00000313    5.95452758
     atom   28 type  1   force =     0.00000312    0.00000352    8.61119671
     atom   29 type  1   force =     0.00000287   -0.00000120    3.43897029
     atom   30 type  1   force =     0.00000862   -0.00000660   12.51309327
     atom   31 type  1   force =     0.00000256   -0.00000642  -12.51309270
     atom   32 type  1   force =     0.00000277   -0.00000136   -3.43900857
     atom   33 type  1   force =     0.00000333    0.00000041   -8.61119681
     atom   34 type  1   force =     0.00000254   -0.00000420   -5.95452715
     atom   35 type  1   force =     0.00000402   -0.00000345  -10.37509880
     atom   36 type  1   force =     0.00000392   -0.00000082   -1.27164421
     atom   37 type  1   force =     0.00000242    0.00000039    1.27164325
     atom   38 type  1   force =     0.00000276    0.00000237   10.37511313
     atom   39 type  1   force =     0.00000552    0.00000286    5.95452618
     atom   40 type  1   force =     0.00000142   -0.00000043    8.61119717
     atom   41 type  1   force =     0.00000334    0.00000083    3.43901945
     atom   42 type  1   force =     0.00000679    0.00000160   12.51309175
     atom   43 type  1   force =     0.00000501    0.00000449  -12.51309383
     atom   44 type  1   force =     0.00000334    0.00000074   -3.43896055
     atom   45 type  1   force =     0.00000287   -0.00000296   -8.61119561
     atom   46 type  1   force =     0.00000351    0.00000218   -5.95452822
     atom   47 type  1   force =     0.00000334    0.00000180  -10.37503963
     atom   48 type  1   force =     0.00000370   -0.00000020   -1.27164555
     The core correction contribution to forces
     atom    1 type  1   force =     0.00000000    0.00000000    0.00000000
     atom    2 type  1   force =     0.00000000    0.00000000    0.00000000
     atom    3 type  1   force =     0.00000000    0.00000000    0.00000000
     atom    4 type  1   force =     0.00000000    0.00000000    0.00000000
     atom    5 type  1   force =     0.00000000    0.00000000    0.00000000
     atom    6 type  1   force =     0.00000000    0.00000000    0.00000000
     atom    7 type  1   force =     0.00000000    0.00000000    0.00000000
     atom    8 type  1   force =     0.00000000    0.00000000    0.00000000
     atom    9 type  1   force =     0.00000000    0.00000000    0.00000000
     atom   10 type  1   force =     0.00000000    0.00000000    0.00000000
     atom   11 type  1   force =     0.00000000    0.00000000    0.00000000
     atom   12 type  1   force =     0.00000000    0.00000000    0.00000000
     atom   13 type  1   force =     0.00000000    0.00000000    0.00000000
     atom   14 type  1   force =     0.00000000    0.00000000    0.00000000
     atom   15 type  1   force =     0.00000000    0.00000000    0.00000000
     atom   16 type  1   force =     0.00000000    0.00000000    0.00000000
     atom   17 type  1   force =     0.00000000    0.00000000    0.00000000
     atom   18 type  1   force =     0.00000000    0.00000000    0.00000000
     atom   19 type  1   force =     0.00000000    0.00000000    0.00000000
     atom   20 type  1   force =     0.00000000    0.00000000    0.00000000
     atom   21 type  1   force =     0.00000000    0.00000000    0.00000000
     atom   22 type  1   force =     0.00000000    0.00000000    0.00000000
     atom   23 type  1   force =     0.00000000    0.00000000    0.00000000
     atom   24 type  1   force =     0.00000000    0.00000000    0.00000000
     atom   25 type  1   force =     0.00000000    0.00000000    0.00000000
     atom   26 type  1   force =     0.00000000    0.00000000    0.00000000
     atom   27 type  1   force =     0.00000000    0.00000000    0.00000000
     atom   28 type  1   force =     0.00000000    0.00000000    0.00000000
     atom   29 type  1   force =     0.00000000    0.00000000    0.00000000
     atom   30 type  1   force =     0.00000000    0.00000000    0.00000000
     atom   31 type  1   force =     0.00000000    0.00000000    0.00000000
     atom   32 type  1   force =     0.00000000    0.00000000    0.00000000
     atom   33 type  1   force =     0.00000000    0.00000000    0.00000000
     atom   34 type  1   force =     0.00000000    0.00000000    0.00000000
     atom   35 type  1   force =     0.00000000    0.00000000    0.00000000
     atom   36 type  1   force =     0.00000000    0.00000000    0.00000000
     atom   37 type  1   force =     0.00000000    0.00000000    0.00000000
     atom   38 type  1   force =     0.00000000    0.00000000    0.00000000
     atom   39 type  1   force =     0.00000000    0.00000000    0.00000000
     atom   40 type  1   force =     0.00000000    0.00000000    0.00000000
     atom   41 type  1   force =     0.00000000    0.00000000    0.00000000
     atom   42 type  1   force =     0.00000000    0.00000000    0.00000000
     atom   43 type  1   force =     0.00000000    0.00000000    0.00000000
     atom   44 type  1   force =     0.00000000    0.00000000    0.00000000
     atom   45 type  1   force =     0.00000000    0.00000000    0.00000000
     atom   46 type  1   force =     0.00000000    0.00000000    0.00000000
     atom   47 type  1   force =     0.00000000    0.00000000    0.00000000
     atom   48 type  1   force =     0.00000000    0.00000000    0.00000000
     The Hubbard contrib.    to forces
     atom    1 type  1   force =     0.00000000    0.00000000    0.00000000
     atom    2 type  1   force =     0.00000000    0.00000000    0.00000000
     atom    3 type  1   force =     0.00000000    0.00000000    0.00000000
     atom    4 type  1   force =     0.00000000    0.00000000    0.00000000
     atom    5 type  1   force =     0.00000000    0.00000000    0.00000000
     atom    6 type  1   force =     0.00000000    0.00000000    0.00000000
     atom    7 type  1   force =     0.00000000    0.00000000    0.00000000
     atom    8 type  1   force =     0.00000000    0.00000000    0.00000000
     atom    9 type  1   force =     0.00000000    0.00000000    0.00000000
     atom   10 type  1   force =     0.00000000    0.00000000    0.00000000
     atom   11 type  1   force =     0.00000000    0.00000000    0.00000000
     atom   12 type  1   force =     0.00000000    0.00000000    0.00000000
     atom   13 type  1   force =     0.00000000    0.00000000    0.00000000
     atom   14 type  1   force =     0.00000000    0.00000000    0.00000000
     atom   15 type  1   force =     0.00000000    0.00000000    0.00000000
     atom   16 type  1   force =     0.00000000    0.00000000    0.00000000
     atom   17 type  1   force =     0.00000000    0.00000000    0.00000000
     atom   18 type  1   force =     0.00000000    0.00000000    0.00000000
     atom   19 type  1   force =     0.00000000    0.00000000    0.00000000
     atom   20 type  1   force =     0.00000000    0.00000000    0.00000000
     atom   21 type  1   force =     0.00000000    0.00000000    0.00000000
     atom   22 type  1   force =     0.00000000    0.00000000    0.00000000
     atom   23 type  1   force =     0.00000000    0.00000000    0.00000000
     atom   24 type  1   force =     0.00000000    0.00000000    0.00000000
     atom   25 type  1   force =     0.00000000    0.00000000    0.00000000
     atom   26 type  1   force =     0.00000000    0.00000000    0.00000000
     atom   27 type  1   force =     0.00000000    0.00000000    0.00000000
     atom   28 type  1   force =     0.00000000    0.00000000    0.00000000
     atom   29 type  1   force =     0.00000000    0.00000000    0.00000000
     atom   30 type  1   force =     0.00000000    0.00000000    0.00000000
     atom   31 type  1   force =     0.00000000    0.00000000    0.00000000
     atom   32 type  1   force =     0.00000000    0.00000000    0.00000000
     atom   33 type  1   force =     0.00000000    0.00000000    0.00000000
     atom   34 type  1   force =     0.00000000    0.00000000    0.00000000
     atom   35 type  1   force =     0.00000000    0.00000000    0.00000000
     atom   36 type  1   force =     0.00000000    0.00000000    0.00000000
     atom   37 type  1   force =     0.00000000    0.00000000    0.00000000
     atom   38 type  1   force =     0.00000000    0.00000000    0.00000000
     atom   39 type  1   force =     0.00000000    0.00000000    0.00000000
     atom   40 type  1   force =     0.00000000    0.00000000    0.00000000
     atom   41 type  1   force =     0.00000000    0.00000000    0.00000000
     atom   42 type  1   force =     0.00000000    0.00000000    0.00000000
     atom   43 type  1   force =     0.00000000    0.00000000    0.00000000
     atom   44 type  1   force =     0.00000000    0.00000000    0.00000000
     atom   45 type  1   force =     0.00000000    0.00000000    0.00000000
     atom   46 type  1   force =     0.00000000    0.00000000    0.00000000
     atom   47 type  1   force =     0.00000000    0.00000000    0.00000000
     atom   48 type  1   force =     0.00000000    0.00000000    0.00000000
     The SCF correction term to forces
     atom    1 type  1   force =     0.00000000    0.00000001   -0.00000000
     atom    2 type  1   force =    -0.00000000   -0.00000000    0.00000000
     atom    3 type  1   force =     0.00000000    0.00000000   -0.00000002
     atom    4 type  1   force =     0.00000000    0.00000000   -0.00000000
     atom    5 type  1   force =    -0.00000000   -0.00000000   -0.00000002
     atom    6 type  1   force =     0.00000000   -0.00000000   -0.00000000
     atom    7 type  1   force =    -0.00000000    0.00000000   -0.00000000
     atom    8 type  1   force =     0.00000000    0.00000000    0.00000001
     atom    9 type  1   force =     0.00000000   -0.00000000   -0.00000000
     atom   10 type  1   force =     0.00000000    0.00000000    0.00000001
     atom   11 type  1   force =     0.00000000    0.00000000   -0.00000001
     atom   12 type  1   force =     0.00000000   -0.00000001   -0.00000001
     atom   13 type  1   force =    -0.00000000   -0.00000000   -0.00000001
     atom   14 type  1   force =    -0.00000000    0.00000000    0.00000001
     atom   15 type  1   force =    -0.00000000    0.00000000   -0.00000002
     atom   16 type  1   force =    -0.00000000   -0.00000000   -0.00000001
     atom   17 type  1   force =     0.00000000    0.00000000   -0.00000002
     atom   18 type  1   force =    -0.00000000   -0.00000000   -0.00000000
     atom   19 type  1   force =    -0.00000000   -0.00000000   -0.00000000
     atom   20 type  1   force =    -0.00000000    0.00000000   -0.00000000
     atom   21 type  1   force =     0.00000000    0.00000000   -0.00000001
     atom   22 type  1   force =    -0.00000000   -0.00000000    0.00000001
     atom   23 type  1   force =    -0.00000000   -0.00000000   -0.00000001
     atom   24 type  1   force =    -0.00000000    0.00000000   -0.00000001
     atom   25 type  1   force =    -0.00000000   -0.00000000   -0.00000000
     atom   26 type  1   force =     0.00000000   -0.00000000    0.00000000
     atom   27 type  1   force =    -0.00000000    0.00000000   -0.00000003
     atom   28 type  1   force =    -0.00000000    0.00000000   -0.00000001
     atom   29 type  1   force =     0.00000000   -0.00000000   -0.00000002
     atom   30 type  1   force =     0.00000000   -0.00000000   -0.00000000
     atom   31 type  1   force =    -0.00000000    0.00000000   -0.00000000
     atom   32 type  1   force =    -0.00000000    0.00000000    0.00000001
     atom   33 type  1   force =     0.00000000   -0.00000000   -0.00000001
     atom   34 type  1   force =     0.00000000    0.00000000    0.00000001
     atom   35 type  1   force =    -0.00000000    0.00000000   -0.00000001
     atom   36 type  1   force =     0.00000000   -0.00000000   -0.00000001
     atom   37 type  1   force =     0.00000000   -0.00000000   -0.00000001
     atom   38 type  1   force =     0.00000000    0.00000000    0.00000000
     atom   39 type  1   force =     0.00000000    0.00000000   -0.00000002
     atom   40 type  1   force =     0.00000000   -0.00000000   -0.00000001
     atom   41 type  1   force =    -0.00000000   -0.00000000   -0.00000002
     atom   42 type  1   force =     0.00000000   -0.00000000   -0.00000000
     atom   43 type  1   force =     0.00000000   -0.00000000   -0.00000000
     atom   44 type  1   force =     0.00000000   -0.00000000    0.00000000
     atom   45 type  1   force =    -0.00000000    0.00000000   -0.00000001
     atom   46 type  1   force =     0.00000000   -0.00000000    0.00000001
     atom   47 type  1   force =     0.00000000    0.00000000   -0.00000002
     atom   48 type  1   force =     0.00000000    0.00000000   -0.00000001

     Total force =     0.000001     Total SCF correction =     0.000000
     Message from routine punch:
     Nothing written, as per user request (disk_io='none')

     General routines

     Parallel routines

     PAW routines

     Environ routines

   This run was terminated on:   2:47:21  26Dec2024

   JOB DONE.