     Program PWSCF v.7.4 starts on 27Dec2024 at 20:50:32

     Reading input from espresso.pwi
Warning: card &CELL ignored
Warning: card    PRESS_CONV_THR   = 0.1 ignored
Warning: card    CELL_DOFREE      = 'ALL' ignored
Warning: card / ignored
Warning: card &FCP ignored
Warning: card / ignored
Warning: card &RISM ignored
Warning: card / ignored

     Current dimensions of program PWSCF are:
     Max number of different atomic species (ntypx) = 10
     Max number of k-points (npk) =  40000
     Max angular momentum in pseudopotentials (lmaxx) =  4

     IMPORTANT: XC functional enforced from input :
     Exchange-correlation= PBE
                           (   1   4   3   4   0   0   0)
     Any further DFT definition will be discarded
     Please, verify this is what you really want

     Reading input from environ.in:
     * using ionic solvent mode
     * setting boundary derivatives method to SSCS default
     * setting electrolyte-boundary derivatives method to SSCS default

Environ Warning (1001): card EOF ignored

     R & G space division:  proc/nbgrp/npool/nimage =     192
     Subspace diagonalization in iterative solution of the eigenvalue problem:
     a serial algorithm will be used

     Using Slab Decomposition

     bravais-lattice index     =           12
     lattice parameter (alat)  =      11.2436  a.u.
     unit-cell volume          =   15431.5256 (a.u.)^3
     number of atoms/cell      =           28
     number of atomic types    =            1
     number of electrons       =        84.00
     number of Kohn-Sham states=           63
     kinetic-energy cutoff     =      80.0000  Ry
     charge density cutoff     =     800.0000  Ry
     scf convergence threshold =      1.0E-14
     mixing beta               =       0.2000
     number of iterations used =            8  local-TF  mixing
     Exchange-correlation= PBE
                           (   1   4   3   4   0   0   0)

                                  Environ Setup Summary

          O. Andreussi, I. Dabo and N. Marzari, J. Chem. Phys. 136, 064102 (2012)
          F. Nattino, M. Truscott, N. Marzari, and O. Andreussi, J. Chem. Phys. 150, 041722 (2019)

     in publications or presentations arising from this work.

     Parameters

     compensation onset threshold      =               0.1000E+00
     static permittivity               =                    89.90
     surface tension in input (dyn/cm) =                    37.30
     surface tension in internal units =               0.4792E-04

     Solvent Boundary

     solvent mode                      =                    ionic
     derivatives method                =                   lowmem
     electrolyte derivatives method    =                   lowmem
     numerical core for derivatives    =                      fft
     switching function adopted        =                     SCCS
     density limit for vacuum region   =               0.5000E-02
     density limit for bulk solvent    =               0.1000E-03
     soft-sphere radius mode           =                    bondi
     soft-sphere softness              =                     0.50
     alpha                             =                     1.32

     Electrostatic Setup

     electrostatic problem to solve    =                    modpb
     numerical solver adopted          =                   newton
     type of auxiliary density adopted =                     none
     numerical core for poisson        =                      fft
     adopting a nested solver scheme
     inner solver                      =                       cg
     inner core                        =                      fft
     type of pbc corrections           =                parabolic
     numerical core for corrections    =                      1da

     celldm(1)=  11.243615  celldm(2)=   1.258306  celldm(3)=   8.704589
     celldm(4)=  -0.132454  celldm(5)=   0.000000  celldm(6)=   0.000000

     crystal axes: (cart. coord. in units of alat)
               a(1) = (   1.000000   0.000000   0.000000 )
               a(2) = (  -0.166667   1.247219   0.000000 )
               a(3) = (   0.000000   0.000000   8.704589 )

     reciprocal axes: (cart. coord. in units 2 pi/alat)
               b(1) = (  1.000000  0.133631  0.000000 )
               b(2) = (  0.000000  0.801784  0.000000 )
               b(3) = (  0.000000  0.000000  0.114882 )

     PseudoPot. # 1 for Li read from file:
     /home/ba3g18/Repos/Pseudopotentials/pslibrary.1.0.0/pbe/PSEUDOPOTENTIALS/Li.pbe-sl-kjpaw_psl.1.0.0.UPF
     MD5 check sum: 3f4d2cafebb47c6c3aa8ed472e6f074d
     Pseudo is Projector augmented-wave, Zval =  3.0
     Generated using 'atomic' code by A. Dal Corso  v.7.4
     Shape of augmentation charge: PSQ
     Using radial grid of 1017 points,  4 beta functions with:
                l(1) =   0
                l(2) =   0
                l(3) =   1
                l(4) =   1
     Q(r) pseudized with 0 coefficients

     atomic species   valence    mass     pseudopotential
     Li                3.00     6.94000     Li( 1.00)

     No symmetry found

                                    s                        frac. trans.

      isym =  1     identity

 cryst.   s( 1) = (     1          0          0      )
                  (     0          1          0      )
                  (     0          0          1      )

 cart.    s( 1) = (  1.0000000  0.0000000  0.0000000 )
                  (  0.0000000  1.0000000  0.0000000 )
                  (  0.0000000  0.0000000  1.0000000 )

     point group C_1 (1)
     there are  1 classes
     the character table:

       E
A      1.00

     the symmetry operations in each class and the name of the first element:

     E        1
          identity

   Cartesian axes

     site n.     atom                  positions (alat units)
         1        Li     tau(   1) = (   0.0446021  -0.0384947   5.3431672  )
         2        Li     tau(   2) = (  -0.0446177   0.8402803   3.3614231  )
         3        Li     tau(   3) = (   0.1260651   0.3578781   3.4940514  )
         4        Li     tau(   4) = (   0.1750984   1.1747644   3.6676749  )
         5        Li     tau(   5) = (   0.2942260   0.7100678   3.7940754  )
         6        Li     tau(   6) = (  -0.0018846   0.2792000   3.9726993  )
         7        Li     tau(   7) = (  -0.0228245   1.0628247   4.1120698  )
         8        Li     tau(   8) = (   0.1803684   0.6333691   4.2767566  )
         9        Li     tau(   9) = (   0.3196329   0.1684135   4.4278307  )
        10        Li     tau(  10) = (   0.3561608   0.9861774   4.5925213  )
        11        Li     tau(  11) = (   0.0018892   0.5225844   4.7318918  )
        12        Li     tau(  12) = (   0.2057713   0.0917124   4.9105172  )
        13        Li     tau(  13) = (   0.1582350   0.8742440   5.0369176  )
        14        Li     tau(  14) = (   0.3739416   0.4439056   5.2105381  )
        15        Li     tau(  15) = (   0.5445967  -0.0384949   5.3431676  )
        16        Li     tau(  16) = (   0.4554125   0.8402806   3.3614209  )
        17        Li     tau(  17) = (   0.6260508   0.3578785   3.4940500  )
        18        Li     tau(  18) = (   0.6750957   1.1747550   3.6676711  )
        19        Li     tau(  19) = (   0.7942317   0.7100732   3.7940699  )
        20        Li     tau(  20) = (   0.4981101   0.2791967   3.9726962  )
        21        Li     tau(  21) = (   0.4771741   1.0628250   4.1120690  )
        22        Li     tau(  22) = (   0.6803684   0.6333699   4.2767608  )
        23        Li     tau(  23) = (   0.8196341   0.1684139   4.4278313  )
        24        Li     tau(  24) = (   0.8561593   0.9861772   4.5925201  )
        25        Li     tau(  25) = (   0.5018904   0.5225853   4.7318913  )
        26        Li     tau(  26) = (   0.7057727   0.0917130   4.9105166  )
        27        Li     tau(  27) = (   0.6582343   0.8742425   5.0369171  )
        28        Li     tau(  28) = (   0.8739393   0.4439058   5.2105375  )

   Crystallographic axes

     site n.     atom                  positions (cryst. coord.)
         1        Li     tau(   1) = (  0.0394581 -0.0308644  0.6138334  )
         2        Li     tau(   2) = (  0.0676697  0.6737231  0.3861668  )
         3        Li     tau(   3) = (  0.1738886  0.2869409  0.4014034  )
         4        Li     tau(   4) = (  0.3320832  0.9419071  0.4213496  )
         5        Li     tau(   5) = (  0.3891130  0.5693209  0.4358707  )
         6        Li     tau(   6) = (  0.0354251  0.2238580  0.4563914  )
         7        Li     tau(   7) = (  0.1192017  0.8521556  0.4724025  )
         8        Li     tau(   8) = (  0.2650061  0.5078251  0.4913221  )
         9        Li     tau(   9) = (  0.3421382  0.1350312  0.5086778  )
        10        Li     tau(  10) = (  0.4879445  0.7907011  0.5275978  )
        11        Li     tau(  11) = (  0.0717226  0.4189997  0.5436089  )
        12        Li     tau(  12) = (  0.2180269  0.0735335  0.5641297  )
        13        Li     tau(  13) = (  0.2750610  0.7009547  0.5786509  )
        14        Li     tau(  14) = (  0.4332611  0.3559163  0.5985967  )
        15        Li     tau(  15) = (  0.5394526 -0.0308646  0.6138334  )
        16        Li     tau(  16) = (  0.5677000  0.6737234  0.3861665  )
        17        Li     tau(  17) = (  0.6738744  0.2869412  0.4014032  )
        18        Li     tau(  18) = (  0.8320792  0.9418995  0.4213492  )
        19        Li     tau(  19) = (  0.8891194  0.5693252  0.4358701  )
        20        Li     tau(  20) = (  0.5354194  0.2238554  0.4563910  )
        21        Li     tau(  21) = (  0.6192004  0.8521559  0.4724025  )
        22        Li     tau(  22) = (  0.7650062  0.5078258  0.4913226  )
        23        Li     tau(  23) = (  0.8421394  0.1350315  0.5086778  )
        24        Li     tau(  24) = (  0.9879430  0.7907009  0.5275976  )
        25        Li     tau(  25) = (  0.5717239  0.4190005  0.5436088  )
        26        Li     tau(  26) = (  0.7180284  0.0735340  0.5641297  )
        27        Li     tau(  27) = (  0.7750601  0.7009535  0.5786508  )
        28        Li     tau(  28) = (  0.9332588  0.3559164  0.5985966  )

     number of k points=    50  Marzari-Vanderbilt smearing, width (Ry)=  0.0100
                       cart. coord. in units 2pi/alat
        k(    1) = (   0.0000000   0.0000000   0.0000000), wk =   0.0202020
        k(    2) = (   0.0000000   0.0890871   0.0000000), wk =   0.0404040
        k(    3) = (   0.0000000   0.1781742   0.0000000), wk =   0.0404040
        k(    4) = (   0.0000000   0.2672613   0.0000000), wk =   0.0404040
        k(    5) = (   0.0000000   0.3563484   0.0000000), wk =   0.0404040
        k(    6) = (   0.0909091   0.0121483   0.0000000), wk =   0.0404040
        k(    7) = (   0.0909091   0.1012354   0.0000000), wk =   0.0404040
        k(    8) = (   0.0909091   0.1903224   0.0000000), wk =   0.0404040
        k(    9) = (   0.0909091   0.2794095   0.0000000), wk =   0.0404040
        k(   10) = (   0.0909091   0.3684966   0.0000000), wk =   0.0404040
        k(   11) = (   0.0909091  -0.3442001   0.0000000), wk =   0.0404040
[...]
     atom   13 type  1   force =     0.00020401    0.00640314   -0.01561726
     atom   14 type  1   force =    -0.00002643   -0.02060750   -0.00246756
     atom   15 type  1   force =    -0.00015984    0.01889146    0.02057945
     atom   16 type  1   force =     0.00015919   -0.01889166   -0.02058023
     atom   17 type  1   force =     0.00002605    0.02060749    0.00246664
     atom   18 type  1   force =    -0.00020403   -0.00640341    0.01561635
     atom   19 type  1   force =    -0.00002045   -0.00123960   -0.00066975
     atom   20 type  1   force =    -0.00000930    0.00197270    0.00404402
     atom   21 type  1   force =     0.00001875   -0.00068600    0.00252336
     atom   22 type  1   force =    -0.00000084   -0.00026025    0.00023375
     atom   23 type  1   force =     0.00000083    0.00026023   -0.00023476
     atom   24 type  1   force =    -0.00001871    0.00068600   -0.00252431
     atom   25 type  1   force =     0.00000932   -0.00197268   -0.00404490
     atom   26 type  1   force =     0.00002050    0.00123951    0.00066891
     atom   27 type  1   force =     0.00020400    0.00640304   -0.01561723
     atom   28 type  1   force =    -0.00002659   -0.02060752   -0.00246748

     Forces acting on atoms (cartesian axes, Ry/au):

     atom    1 type  1   force =    -0.00000622   -0.00000010    0.00000504
     atom    2 type  1   force =     0.00001427    0.00000023   -0.00000568
     atom    3 type  1   force =     0.00000028    0.00003067    0.00001017
     atom    4 type  1   force =     0.00002923   -0.00000900    0.00002143
     atom    5 type  1   force =     0.00001230   -0.00003292   -0.00000128
     atom    6 type  1   force =     0.00000098   -0.00003423   -0.00000527
     atom    7 type  1   force =     0.00002588    0.00000403    0.00001213
     atom    8 type  1   force =     0.00001395    0.00000084   -0.00000577
     atom    9 type  1   force =    -0.00001354   -0.00000039    0.00000729
     atom   10 type  1   force =    -0.00002689   -0.00000400   -0.00001274
     atom   11 type  1   force =    -0.00000231    0.00003342    0.00000418
     atom   12 type  1   force =    -0.00001009    0.00003493   -0.00000077
     atom   13 type  1   force =    -0.00003032    0.00000537   -0.00002286
     atom   14 type  1   force =    -0.00000562   -0.00003040   -0.00001078
     atom   15 type  1   force =    -0.00000270   -0.00000005    0.00000477
     atom   16 type  1   force =    -0.00000534   -0.00000012   -0.00000411
     atom   17 type  1   force =     0.00000953    0.00003032    0.00001109
     atom   18 type  1   force =     0.00003100   -0.00000286    0.00002388
     atom   19 type  1   force =     0.00000865   -0.00003641    0.00000220
     atom   20 type  1   force =     0.00000444   -0.00003208   -0.00000326
     atom   21 type  1   force =     0.00002680    0.00000384    0.00001262
     atom   22 type  1   force =     0.00001398    0.00000029   -0.00000855
     atom   23 type  1   force =    -0.00001428   -0.00000065    0.00000694
     atom   24 type  1   force =    -0.00002591   -0.00000384   -0.00001195
     atom   25 type  1   force =    -0.00000310    0.00003279    0.00000453
     atom   26 type  1   force =    -0.00001101    0.00003452   -0.00000029
     atom   27 type  1   force =    -0.00002989    0.00000628   -0.00002256
     atom   28 type  1   force =    -0.00000409   -0.00003048   -0.00001040
     The non-local contrib.  to forces
     atom    1 type  1   force =     0.00097330   -0.01002009    0.08213123
     atom    2 type  1   force =    -0.00096435    0.01001935   -0.08213073
     atom    3 type  1   force =     0.00015893   -0.01480110   -0.05021470
     atom    4 type  1   force =     0.00141545    0.00307667   -0.00891684
     atom    5 type  1   force =    -0.00046006   -0.00248701   -0.00057836
     atom    6 type  1   force =     0.00034780    0.00081751    0.00227836
     atom    7 type  1   force =    -0.00086743   -0.00071066    0.00142933
     atom    8 type  1   force =     0.00014874    0.00020520   -0.00021396
     atom    9 type  1   force =    -0.00014808   -0.00020478    0.00021554
     atom   10 type  1   force =     0.00086609    0.00071075   -0.00142960
     atom   11 type  1   force =    -0.00034997   -0.00081821   -0.00227928
     atom   12 type  1   force =     0.00046107    0.00248887    0.00057633
     atom   13 type  1   force =    -0.00141573   -0.00308149    0.00891464
     atom   14 type  1   force =    -0.00016331    0.01480231    0.05021247
     atom   15 type  1   force =     0.00097705   -0.01002038    0.08213117
     atom   16 type  1   force =    -0.00098630    0.01002114   -0.08213122
     atom   17 type  1   force =     0.00016675   -0.01480298   -0.05021161
     atom   18 type  1   force =     0.00141569    0.00308455   -0.00891283
     atom   19 type  1   force =    -0.00046157   -0.00249020   -0.00057525
     atom   20 type  1   force =     0.00035395    0.00081975    0.00228044
     atom   21 type  1   force =    -0.00086588   -0.00071077    0.00142948
     atom   22 type  1   force =     0.00014849    0.00020458   -0.00021622
     atom   23 type  1   force =    -0.00014909   -0.00020496    0.00021438
     atom   24 type  1   force =     0.00086757    0.00071074   -0.00142917
     atom   25 type  1   force =    -0.00035158   -0.00081892   -0.00227960
     atom   26 type  1   force =     0.00046065    0.00248847    0.00057677
     atom   27 type  1   force =    -0.00141546   -0.00308019    0.00891540
     atom   28 type  1   force =    -0.00016225    0.01480187    0.05021322
     The ionic contribution  to forces
     atom    1 type  1   force =    -0.00246258   -0.15600815   13.12383093
     atom    2 type  1   force =     0.00259531    0.15600273  -13.12382807
     atom    3 type  1   force =    -0.00067222   -0.28705942  -11.93107787
     atom    4 type  1   force =    -0.00387422    0.16999969   -9.68132986
     atom    5 type  1   force =     0.00266514   -0.03368360   -7.61961991
     atom    6 type  1   force =    -0.00086091   -0.01287807   -5.26504997
     atom    7 type  1   force =     0.00347614    0.01842849   -3.31124549
     atom    8 type  1   force =    -0.00136799   -0.01660603   -1.02729336
     atom    9 type  1   force =     0.00137964    0.01661387    1.02729038
     atom   10 type  1   force =    -0.00349958   -0.01843040    3.31126051
     atom   11 type  1   force =     0.00082186    0.01287130    5.26505082
     atom   12 type  1   force =    -0.00265002    0.03372462    7.61961188
     atom   13 type  1   force =     0.00386558   -0.17007927    9.68133137
     atom   14 type  1   force =     0.00059249    0.28708281   11.93106248
     atom   15 type  1   force =    -0.00240702   -0.15600875   13.12383141
     atom   16 type  1   force =     0.00227641    0.15600945  -13.12382860
     atom   17 type  1   force =    -0.00053406   -0.28709229  -11.93106594
     atom   18 type  1   force =    -0.00386199    0.17013465   -9.68131568
     atom   19 type  1   force =     0.00264405   -0.03375876   -7.61961449
     atom   20 type  1   force =    -0.00075821   -0.01284670   -5.26505420
     atom   21 type  1   force =     0.00350180    0.01842888   -3.31125526
     atom   22 type  1   force =    -0.00137187   -0.01662013   -1.02728183
     atom   23 type  1   force =     0.00136083    0.01661182    1.02727890
     atom   24 type  1   force =    -0.00348023   -0.01842986    3.31124960
     atom   25 type  1   force =     0.00079641    0.01285852    5.26504348
     atom   26 type  1   force =    -0.00265971    0.03371544    7.61961658
     atom   27 type  1   force =     0.00387110   -0.17005832    9.68133867
     atom   28 type  1   force =     0.00061385    0.28707746   11.93106351
     The local contribution  to forces
     atom    1 type  1   force =     0.00164317    0.14713672  -13.22653656
     atom    2 type  1   force =    -0.00177740   -0.14713032   13.22653313
     atom    3 type  1   force =     0.00048663    0.28128364   11.97883652
     atom    4 type  1   force =     0.00269200   -0.16668262    9.67465206
     atom    5 type  1   force =    -0.00217222    0.03737707    7.62086695
     atom    6 type  1   force =     0.00052349    0.01005369    5.25872241
     atom    7 type  1   force =    -0.00260151   -0.01702779    3.30730496
     atom    8 type  1   force =     0.00123407    0.01666188    1.02726772
     atom    9 type  1   force =    -0.00124593   -0.01666970   -1.02726391
     atom   10 type  1   force =     0.00262536    0.01702965   -3.30731930
     atom   11 type  1   force =    -0.00048353   -0.01004698   -5.25872245
     atom   12 type  1   force =     0.00215840   -0.03741812   -7.62085783
     atom   13 type  1   force =    -0.00268416    0.16676299   -9.67465161
     atom   14 type  1   force =    -0.00040835   -0.28130802  -11.97881816
     atom   15 type  1   force =     0.00158713    0.14713762  -13.22653724
     atom   16 type  1   force =    -0.00145461   -0.14713905   13.22653593
     atom   17 type  1   force =     0.00035082    0.28131810   11.97882201
     atom   18 type  1   force =     0.00268134   -0.16681864    9.67463606
     atom   19 type  1   force =    -0.00215336    0.03745217    7.62086170
     atom   20 type  1   force =     0.00041801    0.01002216    5.25872649
     atom   21 type  1   force =    -0.00262785   -0.01702827    3.30731505
     atom   22 type  1   force =     0.00123822    0.01667610    1.02725578
     atom   23 type  1   force =    -0.00122683   -0.01666774   -1.02725157
     atom   24 type  1   force =     0.00260548    0.01702928   -3.30730805
     atom   25 type  1   force =    -0.00045723   -0.01003413   -5.25871444
     atom   26 type  1   force =     0.00216756   -0.03740892   -7.62086254
     atom   27 type  1   force =    -0.00268951    0.16674176   -9.67465940
     atom   28 type  1   force =    -0.00042907   -0.28130229  -11.97881965
     The core correction contribution to forces
     atom    1 type  1   force =     0.00000000    0.00000000    0.00000000
     atom    2 type  1   force =     0.00000000    0.00000000    0.00000000
     atom    3 type  1   force =     0.00000000    0.00000000    0.00000000
     atom    4 type  1   force =     0.00000000    0.00000000    0.00000000
     atom    5 type  1   force =     0.00000000    0.00000000    0.00000000
     atom    6 type  1   force =     0.00000000    0.00000000    0.00000000
     atom    7 type  1   force =     0.00000000    0.00000000    0.00000000
     atom    8 type  1   force =     0.00000000    0.00000000    0.00000000
     atom    9 type  1   force =     0.00000000    0.00000000    0.00000000
     atom   10 type  1   force =     0.00000000    0.00000000    0.00000000
     atom   11 type  1   force =     0.00000000    0.00000000    0.00000000
     atom   12 type  1   force =     0.00000000    0.00000000    0.00000000
     atom   13 type  1   force =     0.00000000    0.00000000    0.00000000
     atom   14 type  1   force =     0.00000000    0.00000000    0.00000000
     atom   15 type  1   force =     0.00000000    0.00000000    0.00000000
     atom   16 type  1   force =     0.00000000    0.00000000    0.00000000
     atom   17 type  1   force =     0.00000000    0.00000000    0.00000000
     atom   18 type  1   force =     0.00000000    0.00000000    0.00000000
     atom   19 type  1   force =     0.00000000    0.00000000    0.00000000
     atom   20 type  1   force =     0.00000000    0.00000000    0.00000000
     atom   21 type  1   force =     0.00000000    0.00000000    0.00000000
     atom   22 type  1   force =     0.00000000    0.00000000    0.00000000
     atom   23 type  1   force =     0.00000000    0.00000000    0.00000000
     atom   24 type  1   force =     0.00000000    0.00000000    0.00000000
     atom   25 type  1   force =     0.00000000    0.00000000    0.00000000
     atom   26 type  1   force =     0.00000000    0.00000000    0.00000000
     atom   27 type  1   force =     0.00000000    0.00000000    0.00000000
     atom   28 type  1   force =     0.00000000    0.00000000    0.00000000
     The Hubbard contrib.    to forces
     atom    1 type  1   force =     0.00000000    0.00000000    0.00000000
     atom    2 type  1   force =     0.00000000    0.00000000    0.00000000
     atom    3 type  1   force =     0.00000000    0.00000000    0.00000000
     atom    4 type  1   force =     0.00000000    0.00000000    0.00000000
     atom    5 type  1   force =     0.00000000    0.00000000    0.00000000
     atom    6 type  1   force =     0.00000000    0.00000000    0.00000000
     atom    7 type  1   force =     0.00000000    0.00000000    0.00000000
     atom    8 type  1   force =     0.00000000    0.00000000    0.00000000
     atom    9 type  1   force =     0.00000000    0.00000000    0.00000000
     atom   10 type  1   force =     0.00000000    0.00000000    0.00000000
     atom   11 type  1   force =     0.00000000    0.00000000    0.00000000
     atom   12 type  1   force =     0.00000000    0.00000000    0.00000000
     atom   13 type  1   force =     0.00000000    0.00000000    0.00000000
     atom   14 type  1   force =     0.00000000    0.00000000    0.00000000
     atom   15 type  1   force =     0.00000000    0.00000000    0.00000000
     atom   16 type  1   force =     0.00000000    0.00000000    0.00000000
     atom   17 type  1   force =     0.00000000    0.00000000    0.00000000
     atom   18 type  1   force =     0.00000000    0.00000000    0.00000000
     atom   19 type  1   force =     0.00000000    0.00000000    0.00000000
     atom   20 type  1   force =     0.00000000    0.00000000    0.00000000
     atom   21 type  1   force =     0.00000000    0.00000000    0.00000000
     atom   22 type  1   force =     0.00000000    0.00000000    0.00000000
     atom   23 type  1   force =     0.00000000    0.00000000    0.00000000
     atom   24 type  1   force =     0.00000000    0.00000000    0.00000000
     atom   25 type  1   force =     0.00000000    0.00000000    0.00000000
     atom   26 type  1   force =     0.00000000    0.00000000    0.00000000
     atom   27 type  1   force =     0.00000000    0.00000000    0.00000000
     atom   28 type  1   force =     0.00000000    0.00000000    0.00000000
     The SCF correction term to forces
     atom    1 type  1   force =     0.00000000   -0.00000000   -0.00000002
     atom    2 type  1   force =    -0.00000000   -0.00000001    0.00000000
     atom    3 type  1   force =    -0.00000000   -0.00000000   -0.00000002
     atom    4 type  1   force =    -0.00000000    0.00000000   -0.00000002
     atom    5 type  1   force =     0.00000000   -0.00000002   -0.00000002
     atom    6 type  1   force =     0.00000000    0.00000001   -0.00000002
     atom    7 type  1   force =     0.00000000   -0.00000000   -0.00000002
     atom    8 type  1   force =    -0.00000000   -0.00000000   -0.00000002
     atom    9 type  1   force =     0.00000000    0.00000000   -0.00000002
     atom   10 type  1   force =    -0.00000000    0.00000000   -0.00000002
     atom   11 type  1   force =    -0.00000000   -0.00000001   -0.00000001
     atom   12 type  1   force =    -0.00000000    0.00000002   -0.00000003
     atom   13 type  1   force =    -0.00000000   -0.00000000    0.00000000
     atom   14 type  1   force =    -0.00000000    0.00000001   -0.00000001
     atom   15 type  1   force =    -0.00000000   -0.00000000   -0.00000002
     atom   16 type  1   force =     0.00000000    0.00000000   -0.00000000
     atom   17 type  1   force =     0.00000000   -0.00000000   -0.00000002
     atom   18 type  1   force =     0.00000000   -0.00000000   -0.00000002
     atom   19 type  1   force =     0.00000000   -0.00000002   -0.00000002
     atom   20 type  1   force =     0.00000000    0.00000001   -0.00000002
     atom   21 type  1   force =     0.00000000   -0.00000000   -0.00000001
     atom   22 type  1   force =    -0.00000000   -0.00000000   -0.00000002
     atom   23 type  1   force =     0.00000000    0.00000000   -0.00000002
     atom   24 type  1   force =     0.00000000    0.00000000   -0.00000002
     atom   25 type  1   force =    -0.00000000   -0.00000001   -0.00000001
     atom   26 type  1   force =    -0.00000000    0.00000002   -0.00000002
     atom   27 type  1   force =     0.00000000   -0.00000000    0.00000000
     atom   28 type  1   force =     0.00000000    0.00000001   -0.00000001

     Total force =     0.000157     Total SCF correction =     0.000000
     Message from routine punch:
     Nothing written, as per user request (disk_io='none')

     General routines

     Parallel routines

     PAW routines

     Environ routines

   This run was terminated on:  21:12: 4  27Dec2024

   JOB DONE.