     Program PWSCF v.7.4 starts on  5Jan2025 at 12: 9:55

     Reading input from espresso.pwi
Warning: card &CELL ignored
Warning: card    PRESS_CONV_THR   = 0.1 ignored
Warning: card    CELL_DOFREE      = 'ALL' ignored
Warning: card / ignored
Warning: card &FCP ignored
Warning: card / ignored
Warning: card &RISM ignored
Warning: card / ignored

     Current dimensions of program PWSCF are:
     Max number of different atomic species (ntypx) = 10
     Max number of k-points (npk) =  40000
     Max angular momentum in pseudopotentials (lmaxx) =  4

     IMPORTANT: XC functional enforced from input :
     Exchange-correlation= PBE
                           (   1   4   3   4   0   0   0)
     Any further DFT definition will be discarded
     Please, verify this is what you really want

     Reading input from environ.in:
     * using ionic solvent mode
     * setting boundary derivatives method to SSCS default
     * setting electrolyte-boundary derivatives method to SSCS default

Environ Warning (1001): card EOF ignored

     Found identity + (  0.5000  0.0000  0.0000) symmetry
     This is a supercell, fractional translations are disabled

     K-points division:     npool     =       2
     R & G space division:  proc/nbgrp/npool/nimage =     256
     Subspace diagonalization in iterative solution of the eigenvalue problem:
     a serial algorithm will be used

     Using Slab Decomposition

     bravais-lattice index     =            8
     lattice parameter (alat)  =      12.9830  a.u.
     unit-cell volume          =   29886.2289 (a.u.)^3
     number of atoms/cell      =           52
     number of atomic types    =            1
     number of electrons       =       156.00
     number of Kohn-Sham states=          117
     kinetic-energy cutoff     =      80.0000  Ry
     charge density cutoff     =     800.0000  Ry
     scf convergence threshold =      1.0E-14
     mixing beta               =       0.2000
     number of iterations used =            8  local-TF  mixing
     Exchange-correlation= PBE
                           (   1   4   3   4   0   0   0)

                                  Environ Setup Summary

          O. Andreussi, I. Dabo and N. Marzari, J. Chem. Phys. 136, 064102 (2012)
          F. Nattino, M. Truscott, N. Marzari, and O. Andreussi, J. Chem. Phys. 150, 041722 (2019)

     in publications or presentations arising from this work.

     Parameters

     compensation onset threshold      =               0.1000E+00
     static permittivity               =                    89.90
     surface tension in input (dyn/cm) =                    37.30
     surface tension in internal units =               0.4792E-04

     Solvent Boundary

     solvent mode                      =                    ionic
     derivatives method                =                   lowmem
     electrolyte derivatives method    =                   lowmem
     numerical core for derivatives    =                      fft
     switching function adopted        =                     SCCS
     density limit for vacuum region   =               0.5000E-02
     density limit for bulk solvent    =               0.1000E-03
     soft-sphere radius mode           =                    bondi
     soft-sphere softness              =                     0.50
     alpha                             =                     1.32

     Electrostatic Setup

     electrostatic problem to solve    =                    modpb
     numerical solver adopted          =                   newton
     type of auxiliary density adopted =                     none
     numerical core for poisson        =                      fft
     adopting a nested solver scheme
     inner solver                      =                       cg
     inner core                        =                      fft
     type of pbc corrections           =                parabolic
     numerical core for corrections    =                      1da

     >>>>> Grand-Canonical SCF is activated <<<<<
     Initial Total Charge  =     0.000000 e
     Target Fermi Energy   =    -1.904000 eV
     Thr. of Fermi Energy  =     0.001000 eV
     Wave-shift of Kerker  =     0.400000 bohr^-1
     Wave-shift of Hartree =     1.500000 bohr^-1
     Mixing Rate of Fermi  =     0.050000

     celldm(1)=  12.983009  celldm(2)=   1.802776  celldm(3)=   7.575360
     celldm(4)=   0.000000  celldm(5)=   0.000000  celldm(6)=   0.000000

     crystal axes: (cart. coord. in units of alat)
               a(1) = (   1.000000   0.000000   0.000000 )
               a(2) = (   0.000000   1.802776   0.000000 )
               a(3) = (   0.000000   0.000000   7.575360 )

     reciprocal axes: (cart. coord. in units 2 pi/alat)
               b(1) = (  1.000000  0.000000  0.000000 )
               b(2) = (  0.000000  0.554700  0.000000 )
               b(3) = (  0.000000  0.000000  0.132007 )

     PseudoPot. # 1 for Li read from file:
     /work/e89/e89/ba3g18/Repos/Pseudopotentials/Pslibrary/Li.pbe-sl-kjpaw_psl.1.0.0.UPF
     MD5 check sum: 3f4d2cafebb47c6c3aa8ed472e6f074d
     Pseudo is Projector augmented-wave, Zval =  3.0
     Generated using 'atomic' code by A. Dal Corso  v.7.4
     Shape of augmentation charge: PSQ
     Using radial grid of 1017 points,  4 beta functions with:
                l(1) =   0
                l(2) =   0
                l(3) =   1
                l(4) =   1
     Q(r) pseudized with 0 coefficients

     atomic species   valence    mass     pseudopotential
     Li                3.00     6.94000     Li( 1.00)

      2 Sym. Ops. (no inversion) found

                                    s                        frac. trans.

      isym =  1     identity

 cryst.   s( 1) = (     1          0          0      )
                  (     0          1          0      )
                  (     0          0          1      )

 cart.    s( 1) = (  1.0000000  0.0000000  0.0000000 )
                  (  0.0000000  1.0000000  0.0000000 )
                  (  0.0000000  0.0000000  1.0000000 )

      isym =  2     inv. 180 deg rotation - cart. axis [1,0,0]

 cryst.   s( 2) = (    -1          0          0      )
                  (     0          1          0      )
                  (     0          0          1      )

 cart.    s( 2) = ( -1.0000000  0.0000000  0.0000000 )
                  (  0.0000000  1.0000000  0.0000000 )
                  (  0.0000000  0.0000000  1.0000000 )

     point group C_s (m)
     there are  2 classes
     the character table:

       E     s
A'     1.00  1.00
A''    1.00 -1.00

     the symmetry operations in each class and the name of the first element:

     E        1
          identity
     s        2
          inv. 180 deg rotation - cart. axis [1,0,0]

   Cartesian axes

     site n.     atom                  positions (alat units)
         1        Li     tau(   1) = (   0.0000000   1.1547216   4.5337777  )
         2        Li     tau(   2) = (   0.0000000   1.5332822   4.2488073  )
         3        Li     tau(   3) = (   0.0000000   0.4332157   4.3938700  )
         4        Li     tau(   4) = (   0.0000000   0.8361327   4.1073953  )
         5        Li     tau(   5) = (   0.0000000   1.2458989   3.8240131  )
         6        Li     tau(   6) = (   0.0000000   1.6589584   3.5362682  )
         7        Li     tau(   7) = (   0.0000000   0.1402455   3.9585329  )
         8        Li     tau(   8) = (   0.0000000   0.5532744   3.6834058  )
         9        Li     tau(   9) = (   0.0000000   0.9639457   3.3955199  )
        10        Li     tau(  10) = (   0.0000000   1.3571205   3.1111664  )
        11        Li     tau(  11) = (   0.0000000   0.2691780   3.2771673  )
        12        Li     tau(  12) = (   0.0000000   0.6356505   2.9682975  )
        13        Li     tau(  13) = (   0.0000000   0.0736616   4.6533119  )
        14        Li     tau(  14) = (   0.2500005   1.1847245   4.1790069  )
        15        Li     tau(  15) = (   0.2500004   1.5934869   3.8915316  )
        16        Li     tau(  16) = (   0.2499994   0.4882192   4.0384579  )
        17        Li     tau(  17) = (   0.2499995   0.9008800   3.7503750  )
        18        Li     tau(  18) = (   0.2499997   1.3117344   3.4673274  )
        19        Li     tau(  19) = (   0.2499992   1.7177686   3.1812873  )
        20        Li     tau(  20) = (   0.2500004   0.2035485   3.6175452  )
        21        Li     tau(  21) = (   0.2500005   0.6163041   3.3264939  )
        22        Li     tau(  22) = (   0.2500005   0.9975221   3.0410551  )
        23        Li     tau(  23) = (   0.2499997   1.5166239   4.6075914  )
        24        Li     tau(  24) = (   0.2499995   0.2760229   2.9239828  )
        25        Li     tau(  25) = (   0.2499999   0.7944358   4.4638888  )
        26        Li     tau(  26) = (   0.2499994   0.0781369   4.2996263  )
        27        Li     tau(  27) = (   0.5000000   1.1547225   4.5337788  )
        28        Li     tau(  28) = (   0.5000000   1.5332827   4.2488085  )
        29        Li     tau(  29) = (   0.5000000   0.4332151   4.3938693  )
        30        Li     tau(  30) = (   0.5000000   0.8361319   4.1073940  )
        31        Li     tau(  31) = (   0.5000000   1.2458980   3.8240124  )
        32        Li     tau(  32) = (   0.5000000   1.6589577   3.5362680  )
        33        Li     tau(  33) = (   0.5000000   0.1402462   3.9585337  )
        34        Li     tau(  34) = (   0.5000000   0.5532753   3.6834062  )
        35        Li     tau(  35) = (   0.5000000   0.9639466   3.3955203  )
        36        Li     tau(  36) = (   0.5000000   1.3571211   3.1111668  )
        37        Li     tau(  37) = (   0.5000000   0.2691778   3.2771668  )
        38        Li     tau(  38) = (   0.5000000   0.6356503   2.9682963  )
        39        Li     tau(  39) = (   0.5000000   0.0736612   4.6533115  )
        40        Li     tau(  40) = (   0.7499995   1.1847245   4.1790069  )
        41        Li     tau(  41) = (   0.7499996   1.5934869   3.8915316  )
        42        Li     tau(  42) = (   0.7500006   0.4882192   4.0384579  )
        43        Li     tau(  43) = (   0.7500005   0.9008800   3.7503750  )
        44        Li     tau(  44) = (   0.7500003   1.3117344   3.4673274  )
        45        Li     tau(  45) = (   0.7500008   1.7177686   3.1812873  )
        46        Li     tau(  46) = (   0.7499996   0.2035485   3.6175452  )
        47        Li     tau(  47) = (   0.7499995   0.6163041   3.3264939  )
        48        Li     tau(  48) = (   0.7499995   0.9975221   3.0410551  )
        49        Li     tau(  49) = (   0.7500003   1.5166239   4.6075914  )
        50        Li     tau(  50) = (   0.7500005   0.2760229   2.9239828  )
        51        Li     tau(  51) = (   0.7500001   0.7944358   4.4638888  )
        52        Li     tau(  52) = (   0.7500006   0.0781369   4.2996263  )

   Crystallographic axes

     site n.     atom                  positions (cryst. coord.)
         1        Li     tau(   1) = (  0.0000000  0.6405242  0.5984901  )
         2        Li     tau(   2) = (  0.0000000  0.8505118  0.5608720  )
         3        Li     tau(   3) = (  0.0000000  0.2403048  0.5800213  )
[...]
     atom   47 type  1   force =     0.00000081    0.08943048   -7.11932510
     atom   48 type  1   force =     0.00000267    0.49663453  -11.72125913
     atom   49 type  1   force =     0.00000093   -0.27385510   12.35625438
     atom   50 type  1   force =    -0.00000394   -0.63344108  -12.81271392
     atom   51 type  1   force =    -0.00000573   -0.28927962   11.04736491
     atom   52 type  1   force =    -0.00000323    0.30385958    8.04574656
     The local contribution  to forces
     atom    1 type  1   force =    -0.00000000    0.47364993  -11.59638531
     atom    2 type  1   force =    -0.00000000    0.09086566   -7.03848553
     atom    3 type  1   force =    -0.00000000   -0.32863368   -9.85439620
     atom    4 type  1   force =     0.00000000    0.06808221   -5.15594618
     atom    5 type  1   force =     0.00000000    0.02625022   -0.51836299
     atom    6 type  1   force =     0.00000000    0.10613743    4.10370769
     atom    7 type  1   force =    -0.00000000   -0.06874208   -2.68705564
     atom    8 type  1   force =     0.00000000   -0.06508094    1.52405205
     atom    9 type  1   force =     0.00000000   -0.16874236    6.11180313
     atom   10 type  1   force =     0.00000000   -0.27313999   10.92341839
     atom   11 type  1   force =     0.00000000    0.28445682    7.93037611
     atom   12 type  1   force =    -0.00000000   -0.25455459   12.26020142
     atom   13 type  1   force =    -0.00000000   -0.61621820  -12.77305341
     atom   14 type  1   force =    -0.00000025    0.16862551   -6.10459615
     atom   15 type  1   force =     0.00000003    0.06555588   -1.52560280
     atom   16 type  1   force =    -0.00000140   -0.10968986   -4.09782787
     atom   17 type  1   force =     0.00000183   -0.02670510    0.52207759
     atom   18 type  1   force =     0.00000120   -0.07108822    5.15997942
     atom   19 type  1   force =    -0.00000541    0.32484750    9.86057121
     atom   20 type  1   force =     0.00000005    0.06998063    2.67192322
     atom   21 type  1   force =     0.00000175   -0.08785553    7.03751145
     atom   22 type  1   force =     0.00000367   -0.47079436   11.60530686
     atom   23 type  1   force =     0.00000188    0.25922035  -12.25876808
     atom   24 type  1   force =    -0.00000295    0.61549645   12.76501429
     atom   25 type  1   force =    -0.00000495    0.27040111  -10.91941448
     atom   26 type  1   force =    -0.00000230   -0.28250913   -7.94903498
     atom   27 type  1   force =     0.00000096    0.47365657  -11.59639628
     atom   28 type  1   force =     0.00000096    0.09086329   -7.03850026
     atom   29 type  1   force =     0.00000096   -0.32863590   -9.85438582
     atom   30 type  1   force =     0.00000096    0.06808200   -5.15593216
     atom   31 type  1   force =     0.00000096    0.02624825   -0.51835347
     atom   32 type  1   force =     0.00000096    0.10613515    4.10371623
     atom   33 type  1   force =     0.00000096   -0.06874318   -2.68706933
     atom   34 type  1   force =     0.00000096   -0.06507888    1.52404373
     atom   35 type  1   force =     0.00000096   -0.16874145    6.11179593
     atom   36 type  1   force =     0.00000096   -0.27314391   10.92341249
     atom   37 type  1   force =     0.00000096    0.28446267    7.93038770
     atom   38 type  1   force =     0.00000096   -0.25455062   12.26021471
     atom   39 type  1   force =     0.00000097   -0.61621846  -12.77304845
     atom   40 type  1   force =     0.00000217    0.16862551   -6.10459615
     atom   41 type  1   force =     0.00000190    0.06555588   -1.52560280
     atom   42 type  1   force =     0.00000333   -0.10968986   -4.09782787
     atom   43 type  1   force =     0.00000009   -0.02670510    0.52207759
     atom   44 type  1   force =     0.00000072   -0.07108822    5.15997942
     atom   45 type  1   force =     0.00000734    0.32484750    9.86057121
     atom   46 type  1   force =     0.00000187    0.06998063    2.67192322
     atom   47 type  1   force =     0.00000017   -0.08785553    7.03751145
     atom   48 type  1   force =    -0.00000175   -0.47079436   11.60530686
     atom   49 type  1   force =     0.00000004    0.25922035  -12.25876808
     atom   50 type  1   force =     0.00000487    0.61549645   12.76501429
     atom   51 type  1   force =     0.00000687    0.27040111  -10.91941448
     atom   52 type  1   force =     0.00000422   -0.28250913   -7.94903498
     The core correction contribution to forces
     atom    1 type  1   force =     0.00000000    0.00000000    0.00000000
     atom    2 type  1   force =     0.00000000    0.00000000    0.00000000
     atom    3 type  1   force =     0.00000000    0.00000000    0.00000000
     atom    4 type  1   force =     0.00000000    0.00000000    0.00000000
     atom    5 type  1   force =     0.00000000    0.00000000    0.00000000
     atom    6 type  1   force =     0.00000000    0.00000000    0.00000000
     atom    7 type  1   force =     0.00000000    0.00000000    0.00000000
     atom    8 type  1   force =     0.00000000    0.00000000    0.00000000
     atom    9 type  1   force =     0.00000000    0.00000000    0.00000000
     atom   10 type  1   force =     0.00000000    0.00000000    0.00000000
     atom   11 type  1   force =     0.00000000    0.00000000    0.00000000
     atom   12 type  1   force =     0.00000000    0.00000000    0.00000000
     atom   13 type  1   force =     0.00000000    0.00000000    0.00000000
     atom   14 type  1   force =     0.00000000    0.00000000    0.00000000
     atom   15 type  1   force =     0.00000000    0.00000000    0.00000000
     atom   16 type  1   force =     0.00000000    0.00000000    0.00000000
     atom   17 type  1   force =     0.00000000    0.00000000    0.00000000
     atom   18 type  1   force =     0.00000000    0.00000000    0.00000000
     atom   19 type  1   force =     0.00000000    0.00000000    0.00000000
     atom   20 type  1   force =     0.00000000    0.00000000    0.00000000
     atom   21 type  1   force =     0.00000000    0.00000000    0.00000000
     atom   22 type  1   force =     0.00000000    0.00000000    0.00000000
     atom   23 type  1   force =     0.00000000    0.00000000    0.00000000
     atom   24 type  1   force =     0.00000000    0.00000000    0.00000000
     atom   25 type  1   force =     0.00000000    0.00000000    0.00000000
     atom   26 type  1   force =     0.00000000    0.00000000    0.00000000
     atom   27 type  1   force =     0.00000000    0.00000000    0.00000000
     atom   28 type  1   force =     0.00000000    0.00000000    0.00000000
     atom   29 type  1   force =     0.00000000    0.00000000    0.00000000
     atom   30 type  1   force =     0.00000000    0.00000000    0.00000000
     atom   31 type  1   force =     0.00000000    0.00000000    0.00000000
     atom   32 type  1   force =     0.00000000    0.00000000    0.00000000
     atom   33 type  1   force =     0.00000000    0.00000000    0.00000000
     atom   34 type  1   force =     0.00000000    0.00000000    0.00000000
     atom   35 type  1   force =     0.00000000    0.00000000    0.00000000
     atom   36 type  1   force =     0.00000000    0.00000000    0.00000000
     atom   37 type  1   force =     0.00000000    0.00000000    0.00000000
     atom   38 type  1   force =     0.00000000    0.00000000    0.00000000
     atom   39 type  1   force =     0.00000000    0.00000000    0.00000000
     atom   40 type  1   force =     0.00000000    0.00000000    0.00000000
     atom   41 type  1   force =     0.00000000    0.00000000    0.00000000
     atom   42 type  1   force =     0.00000000    0.00000000    0.00000000
     atom   43 type  1   force =     0.00000000    0.00000000    0.00000000
     atom   44 type  1   force =     0.00000000    0.00000000    0.00000000
     atom   45 type  1   force =     0.00000000    0.00000000    0.00000000
     atom   46 type  1   force =     0.00000000    0.00000000    0.00000000
     atom   47 type  1   force =     0.00000000    0.00000000    0.00000000
     atom   48 type  1   force =     0.00000000    0.00000000    0.00000000
     atom   49 type  1   force =     0.00000000    0.00000000    0.00000000
     atom   50 type  1   force =     0.00000000    0.00000000    0.00000000
     atom   51 type  1   force =     0.00000000    0.00000000    0.00000000
     atom   52 type  1   force =     0.00000000    0.00000000    0.00000000
     The Hubbard contrib.    to forces
     atom    1 type  1   force =     0.00000000    0.00000000    0.00000000
     atom    2 type  1   force =     0.00000000    0.00000000    0.00000000
     atom    3 type  1   force =     0.00000000    0.00000000    0.00000000
     atom    4 type  1   force =     0.00000000    0.00000000    0.00000000
     atom    5 type  1   force =     0.00000000    0.00000000    0.00000000
     atom    6 type  1   force =     0.00000000    0.00000000    0.00000000
     atom    7 type  1   force =     0.00000000    0.00000000    0.00000000
     atom    8 type  1   force =     0.00000000    0.00000000    0.00000000
     atom    9 type  1   force =     0.00000000    0.00000000    0.00000000
     atom   10 type  1   force =     0.00000000    0.00000000    0.00000000
     atom   11 type  1   force =     0.00000000    0.00000000    0.00000000
     atom   12 type  1   force =     0.00000000    0.00000000    0.00000000
     atom   13 type  1   force =     0.00000000    0.00000000    0.00000000
     atom   14 type  1   force =     0.00000000    0.00000000    0.00000000
     atom   15 type  1   force =     0.00000000    0.00000000    0.00000000
     atom   16 type  1   force =     0.00000000    0.00000000    0.00000000
     atom   17 type  1   force =     0.00000000    0.00000000    0.00000000
     atom   18 type  1   force =     0.00000000    0.00000000    0.00000000
     atom   19 type  1   force =     0.00000000    0.00000000    0.00000000
     atom   20 type  1   force =     0.00000000    0.00000000    0.00000000
     atom   21 type  1   force =     0.00000000    0.00000000    0.00000000
     atom   22 type  1   force =     0.00000000    0.00000000    0.00000000
     atom   23 type  1   force =     0.00000000    0.00000000    0.00000000
     atom   24 type  1   force =     0.00000000    0.00000000    0.00000000
     atom   25 type  1   force =     0.00000000    0.00000000    0.00000000
     atom   26 type  1   force =     0.00000000    0.00000000    0.00000000
     atom   27 type  1   force =     0.00000000    0.00000000    0.00000000
     atom   28 type  1   force =     0.00000000    0.00000000    0.00000000
     atom   29 type  1   force =     0.00000000    0.00000000    0.00000000
     atom   30 type  1   force =     0.00000000    0.00000000    0.00000000
     atom   31 type  1   force =     0.00000000    0.00000000    0.00000000
     atom   32 type  1   force =     0.00000000    0.00000000    0.00000000
     atom   33 type  1   force =     0.00000000    0.00000000    0.00000000
     atom   34 type  1   force =     0.00000000    0.00000000    0.00000000
     atom   35 type  1   force =     0.00000000    0.00000000    0.00000000
     atom   36 type  1   force =     0.00000000    0.00000000    0.00000000
     atom   37 type  1   force =     0.00000000    0.00000000    0.00000000
     atom   38 type  1   force =     0.00000000    0.00000000    0.00000000
     atom   39 type  1   force =     0.00000000    0.00000000    0.00000000
     atom   40 type  1   force =     0.00000000    0.00000000    0.00000000
     atom   41 type  1   force =     0.00000000    0.00000000    0.00000000
     atom   42 type  1   force =     0.00000000    0.00000000    0.00000000
     atom   43 type  1   force =     0.00000000    0.00000000    0.00000000
     atom   44 type  1   force =     0.00000000    0.00000000    0.00000000
     atom   45 type  1   force =     0.00000000    0.00000000    0.00000000
     atom   46 type  1   force =     0.00000000    0.00000000    0.00000000
     atom   47 type  1   force =     0.00000000    0.00000000    0.00000000
     atom   48 type  1   force =     0.00000000    0.00000000    0.00000000
     atom   49 type  1   force =     0.00000000    0.00000000    0.00000000
     atom   50 type  1   force =     0.00000000    0.00000000    0.00000000
     atom   51 type  1   force =     0.00000000    0.00000000    0.00000000
     atom   52 type  1   force =     0.00000000    0.00000000    0.00000000
     The SCF correction term to forces
     atom    1 type  1   force =    -0.00000000   -0.00000002   -0.00000007
     atom    2 type  1   force =    -0.00000000   -0.00000004    0.00000003
     atom    3 type  1   force =     0.00000000    0.00000004   -0.00000002
     atom    4 type  1   force =     0.00000000    0.00000000    0.00000003
     atom    5 type  1   force =     0.00000000   -0.00000009    0.00000016
     atom    6 type  1   force =    -0.00000000   -0.00000003    0.00000017
     atom    7 type  1   force =    -0.00000000    0.00000005    0.00000015
     atom    8 type  1   force =     0.00000000    0.00000009    0.00000019
     atom    9 type  1   force =     0.00000000   -0.00000003    0.00000021
     atom   10 type  1   force =     0.00000000   -0.00000004    0.00000009
     atom   11 type  1   force =    -0.00000000    0.00000006    0.00000012
     atom   12 type  1   force =     0.00000000    0.00000001    0.00000009
     atom   13 type  1   force =    -0.00000000    0.00000002   -0.00000004
     atom   14 type  1   force =    -0.00000000   -0.00000005    0.00000002
     atom   15 type  1   force =     0.00000000   -0.00000005    0.00000017
     atom   16 type  1   force =    -0.00000000    0.00000008    0.00000009
     atom   17 type  1   force =    -0.00000000   -0.00000001    0.00000018
     atom   18 type  1   force =    -0.00000000   -0.00000008    0.00000019
     atom   19 type  1   force =     0.00000000   -0.00000000    0.00000007
     atom   20 type  1   force =     0.00000000    0.00000008    0.00000018
     atom   21 type  1   force =     0.00000000    0.00000005    0.00000018
     atom   22 type  1   force =     0.00000000   -0.00000002    0.00000011
     atom   23 type  1   force =    -0.00000000   -0.00000001   -0.00000005
     atom   24 type  1   force =    -0.00000000    0.00000002    0.00000003
     atom   25 type  1   force =    -0.00000000   -0.00000000   -0.00000007
     atom   26 type  1   force =     0.00000000    0.00000002    0.00000003
     atom   27 type  1   force =     0.00000000   -0.00000002   -0.00000007
     atom   28 type  1   force =    -0.00000000   -0.00000004    0.00000003
     atom   29 type  1   force =     0.00000000    0.00000004   -0.00000002
     atom   30 type  1   force =     0.00000000    0.00000000    0.00000003
     atom   31 type  1   force =    -0.00000000   -0.00000009    0.00000016
     atom   32 type  1   force =    -0.00000000   -0.00000003    0.00000017
     atom   33 type  1   force =    -0.00000000    0.00000005    0.00000016
     atom   34 type  1   force =    -0.00000000    0.00000009    0.00000019
     atom   35 type  1   force =    -0.00000000   -0.00000003    0.00000021
     atom   36 type  1   force =     0.00000000   -0.00000004    0.00000009
     atom   37 type  1   force =     0.00000000    0.00000006    0.00000012
     atom   38 type  1   force =     0.00000000    0.00000001    0.00000009
     atom   39 type  1   force =     0.00000000    0.00000002   -0.00000004
     atom   40 type  1   force =     0.00000000   -0.00000005    0.00000002
     atom   41 type  1   force =    -0.00000000   -0.00000005    0.00000017
     atom   42 type  1   force =     0.00000000    0.00000008    0.00000009
     atom   43 type  1   force =     0.00000000   -0.00000001    0.00000018
     atom   44 type  1   force =     0.00000000   -0.00000008    0.00000019
     atom   45 type  1   force =    -0.00000000   -0.00000000    0.00000007
     atom   46 type  1   force =    -0.00000000    0.00000008    0.00000018
     atom   47 type  1   force =    -0.00000000    0.00000005    0.00000018
     atom   48 type  1   force =    -0.00000000   -0.00000002    0.00000011
     atom   49 type  1   force =     0.00000000   -0.00000001   -0.00000005
     atom   50 type  1   force =     0.00000000    0.00000002    0.00000003
     atom   51 type  1   force =     0.00000000   -0.00000000   -0.00000007
     atom   52 type  1   force =    -0.00000000    0.00000002    0.00000003

     Total force =     0.002471     Total SCF correction =     0.000001

     Writing all to output data dir ./Li/Lithium.save/ :
     XML data file

     General routines

     Parallel routines

     PAW routines

     Environ routines

   This run was terminated on:  13:23:47   5Jan2025

   JOB DONE.