     Program PWSCF v.7.4 starts on 25Dec2024 at 21:22: 7

     Reading input from espresso.pwi
Warning: card &CELL ignored
Warning: card    PRESS_CONV_THR   = 0.1 ignored
Warning: card    CELL_DOFREE      = 'ALL' ignored
Warning: card / ignored
Warning: card &FCP ignored
Warning: card / ignored
Warning: card &RISM ignored
Warning: card / ignored

     Current dimensions of program PWSCF are:
     Max number of different atomic species (ntypx) = 10
     Max number of k-points (npk) =  40000
     Max angular momentum in pseudopotentials (lmaxx) =  4

     IMPORTANT: XC functional enforced from input :
     Exchange-correlation= PBE
                           (   1   4   3   4   0   0   0)
     Any further DFT definition will be discarded
     Please, verify this is what you really want

     Reading input from environ.in:
     * using ionic solvent mode
     * setting boundary derivatives method to SSCS default
     * setting electrolyte-boundary derivatives method to SSCS default

Environ Warning (1001): card EOF ignored

     R & G space division:  proc/nbgrp/npool/nimage =     192
     Subspace diagonalization in iterative solution of the eigenvalue problem:
     a serial algorithm will be used

     Using Slab Decomposition

     bravais-lattice index     =            8
     lattice parameter (alat)  =      11.2436  a.u.
     unit-cell volume          =   18353.5531 (a.u.)^3
     number of atoms/cell      =           24
     number of atomic types    =            1
     number of electrons       =        72.00
     number of Kohn-Sham states=           54
     kinetic-energy cutoff     =      80.0000  Ry
     charge density cutoff     =     800.0000  Ry
     scf convergence threshold =      1.0E-14
     mixing beta               =       0.2000
     number of iterations used =            8  local-TF  mixing
     Exchange-correlation= PBE
                           (   1   4   3   4   0   0   0)

                                  Environ Setup Summary

          O. Andreussi, I. Dabo and N. Marzari, J. Chem. Phys. 136, 064102 (2012)
          F. Nattino, M. Truscott, N. Marzari, and O. Andreussi, J. Chem. Phys. 150, 041722 (2019)

     in publications or presentations arising from this work.

     Parameters

     compensation onset threshold      =               0.1000E+00
     static permittivity               =                    89.90
     surface tension in input (dyn/cm) =                    37.30
     surface tension in internal units =               0.4792E-04

     Solvent Boundary

     solvent mode                      =                    ionic
     derivatives method                =                   lowmem
     electrolyte derivatives method    =                   lowmem
     numerical core for derivatives    =                      fft
     switching function adopted        =                     SCCS
     density limit for vacuum region   =               0.5000E-02
     density limit for bulk solvent    =               0.1000E-03
     soft-sphere radius mode           =                    bondi
     soft-sphere softness              =                     0.50
     alpha                             =                     1.32

     Electrostatic Setup

     electrostatic problem to solve    =                    modpb
     numerical solver adopted          =                   newton
     type of auxiliary density adopted =                     none
     numerical core for poisson        =                      fft
     adopting a nested solver scheme
     inner solver                      =                       cg
     inner core                        =                      fft
     type of pbc corrections           =                parabolic
     numerical core for corrections    =                      1da

     celldm(1)=  11.243615  celldm(2)=   1.632993  celldm(3)=   7.907113
     celldm(4)=   0.000000  celldm(5)=   0.000000  celldm(6)=   0.000000

     crystal axes: (cart. coord. in units of alat)
               a(1) = (   1.000000   0.000000   0.000000 )
               a(2) = (   0.000000   1.632993   0.000000 )
               a(3) = (   0.000000   0.000000   7.907113 )

     reciprocal axes: (cart. coord. in units 2 pi/alat)
               b(1) = (  1.000000  0.000000  0.000000 )
               b(2) = (  0.000000  0.612372  0.000000 )
               b(3) = (  0.000000  0.000000  0.126468 )

     PseudoPot. # 1 for Li read from file:
     /home/ba3g18/Repos/Pseudopotentials/pslibrary.1.0.0/pbe/PSEUDOPOTENTIALS/Li.pbe-sl-kjpaw_psl.1.0.0.UPF
     MD5 check sum: 3f4d2cafebb47c6c3aa8ed472e6f074d
     Pseudo is Projector augmented-wave, Zval =  3.0
     Generated using 'atomic' code by A. Dal Corso  v.7.4
     Shape of augmentation charge: PSQ
     Using radial grid of 1017 points,  4 beta functions with:
                l(1) =   0
                l(2) =   0
                l(3) =   1
                l(4) =   1
     Q(r) pseudized with 0 coefficients

     atomic species   valence    mass     pseudopotential
     Li                3.00     6.94000     Li( 1.00)

      2 Sym. Ops. (no inversion) found

                                    s                        frac. trans.

      isym =  1     identity

 cryst.   s( 1) = (     1          0          0      )
                  (     0          1          0      )
                  (     0          0          1      )

 cart.    s( 1) = (  1.0000000  0.0000000  0.0000000 )
                  (  0.0000000  1.0000000  0.0000000 )
                  (  0.0000000  0.0000000  1.0000000 )

      isym =  2     inv. 180 deg rotation - cart. axis [0,1,0]

 cryst.   s( 2) = (     1          0          0      )
                  (     0         -1          0      )
                  (     0          0          1      )

 cart.    s( 2) = (  1.0000000  0.0000000  0.0000000 )
                  (  0.0000000 -1.0000000  0.0000000 )
                  (  0.0000000  0.0000000  1.0000000 )

     point group C_s (m)
     there are  2 classes
     the character table:

       E     s
A'     1.00  1.00
A''    1.00 -1.00

     the symmetry operations in each class and the name of the first element:

     E        1
          identity
     s        2
          inv. 180 deg rotation - cart. axis [0,1,0]

   Cartesian axes

     site n.     atom                  positions (alat units)
         1        Li     tau(   1) = (   0.5182030   0.8164966   4.5308744  )
         2        Li     tau(   2) = (   0.1484654   0.4082529   3.3762391  )
         3        Li     tau(   3) = (   0.3536362   0.8164966   3.6079977  )
         4        Li     tau(   4) = (   0.4981139   0.4082423   3.8321489  )
         5        Li     tau(   5) = (   0.1685452   0.8164966   4.0749697  )
         6        Li     tau(   6) = (   0.3130291   0.4082427   4.2990971  )
         7        Li     tau(   7) = (   0.5182049   1.6329931   4.5308630  )
         8        Li     tau(   8) = (   0.1484653   1.2247404   3.3762391  )
         9        Li     tau(   9) = (   0.3536394   1.6329931   3.6080070  )
        10        Li     tau(  10) = (   0.4981139   1.2247510   3.8321490  )
        11        Li     tau(  11) = (   0.1685569   1.6329931   4.0749759  )
        12        Li     tau(  12) = (   0.3130291   1.2247506   4.2990971  )
        13        Li     tau(  13) = (   1.0181931   0.8164966   4.5308697  )
        14        Li     tau(  14) = (   0.6484758   0.4082507   3.3762402  )
        15        Li     tau(  15) = (   0.8536374   0.8164966   3.6080038  )
        16        Li     tau(  16) = (   0.9981175   0.4082452   3.8321508  )
        17        Li     tau(  17) = (   0.6685430   0.8164966   4.0749758  )
        18        Li     tau(  18) = (   0.8130327   0.4082450   4.2991008  )
        19        Li     tau(  19) = (   1.0181896   1.6329931   4.5308666  )
        20        Li     tau(  20) = (   0.6484757   1.2247426   3.3762402  )
        21        Li     tau(  21) = (   0.8536334   1.6329931   3.6079943  )
        22        Li     tau(  22) = (   0.9981175   1.2247481   3.8321508  )
        23        Li     tau(  23) = (   0.6685499   1.6329931   4.0749662  )
        24        Li     tau(  24) = (   0.8130327   1.2247482   4.2991008  )

   Crystallographic axes

     site n.     atom                  positions (cryst. coord.)
         1        Li     tau(   1) = (  0.5182030  0.5000001  0.5730125  )
         2        Li     tau(   2) = (  0.1484654  0.2500028  0.4269876  )
         3        Li     tau(   3) = (  0.3536362  0.5000001  0.4562977  )
         4        Li     tau(   4) = (  0.4981139  0.2499963  0.4846458  )
         5        Li     tau(   5) = (  0.1685452  0.5000001  0.5153550  )
         6        Li     tau(   6) = (  0.3130291  0.2499966  0.5437000  )
         7        Li     tau(   7) = (  0.5182049  1.0000001  0.5730111  )
         8        Li     tau(   8) = (  0.1484653  0.7499973  0.4269876  )
         9        Li     tau(   9) = (  0.3536394  1.0000001  0.4562989  )
        10        Li     tau(  10) = (  0.4981139  0.7500038  0.4846458  )
        11        Li     tau(  11) = (  0.1685569  1.0000001  0.5153557  )
        12        Li     tau(  12) = (  0.3130291  0.7500036  0.5437000  )
        13        Li     tau(  13) = (  1.0181931  0.5000001  0.5730119  )
        14        Li     tau(  14) = (  0.6484758  0.2500015  0.4269877  )
        15        Li     tau(  15) = (  0.8536374  0.5000001  0.4562985  )
        16        Li     tau(  16) = (  0.9981175  0.2499981  0.4846460  )
        17        Li     tau(  17) = (  0.6685430  0.5000001  0.5153557  )
        18        Li     tau(  18) = (  0.8130327  0.2499980  0.5437005  )
        19        Li     tau(  19) = (  1.0181896  1.0000001  0.5730115  )
        20        Li     tau(  20) = (  0.6484757  0.7499987  0.4269877  )
        21        Li     tau(  21) = (  0.8536334  1.0000001  0.4562973  )
        22        Li     tau(  22) = (  0.9981175  0.7500020  0.4846460  )
        23        Li     tau(  23) = (  0.6685499  1.0000001  0.5153545  )
        24        Li     tau(  24) = (  0.8130327  0.7500021  0.5437005  )

     number of k points=    24  Marzari-Vanderbilt smearing, width (Ry)=  0.0100
                       cart. coord. in units 2pi/alat
        k(    1) = (   0.0000000   0.0000000   0.0000000), wk =   0.0259740
        k(    2) = (   0.0000000   0.0874818   0.0000000), wk =   0.0519481
        k(    3) = (   0.0000000   0.1749636   0.0000000), wk =   0.0519481
        k(    4) = (   0.0000000   0.2624454   0.0000000), wk =   0.0519481
        k(    5) = (   0.0909091   0.0000000   0.0000000), wk =   0.0519481
        k(    6) = (   0.0909091   0.0874818   0.0000000), wk =   0.1038961
        k(    7) = (   0.0909091   0.1749636   0.0000000), wk =   0.1038961
        k(    8) = (   0.0909091   0.2624454   0.0000000), wk =   0.1038961
        k(    9) = (   0.1818182   0.0000000   0.0000000), wk =   0.0519481
        k(   10) = (   0.1818182   0.0874818   0.0000000), wk =   0.1038961
        k(   11) = (   0.1818182   0.1749636   0.0000000), wk =   0.1038961
        k(   12) = (   0.1818182   0.2624454   0.0000000), wk =   0.1038961
[...]
     0.0000   0.0000   0.0000   0.0000   0.0000   0.0000   0.0000   0.0000
     0.0000   0.0000   0.0000   0.0000   0.0000   0.0000

     the Fermi energy is    -2.7118 ev

!    total energy              =    -360.77716444 Ry
     total all-electron energy =      -360.777360 Ry
     estimated scf accuracy    <          7.9E-15 Ry
     smearing contrib. (-TS)   =      -0.00128920 Ry
     internal energy E=F+TS    =    -360.77587524 Ry

     The total energy is F=E-TS. E is the sum of the following terms:
     one-electron contribution =   -3442.17667976 Ry
     hartree contribution      =    1681.90824873 Ry
     xc contribution           =     -85.93454488 Ry
     ewald contribution        =    1480.19070246 Ry
     one-center paw contrib.   =       2.11560362 Ry
      -> PAW hartree energy AE =       7.34998789 Ry
      -> PAW hartree energy PS =      -7.12752609 Ry
      -> PAW xc energy AE      =      -3.47236471 Ry
      -> PAW xc energy PS      =       3.33802223 Ry
      -> total E_H with PAW    =    1682.13071053 Ry
      -> total E_XC with PAW   =     -86.06888736 Ry
     electrostatic embedding   =      -0.03391474 Ry
     cavitation energy         =       0.02441359 Ry
     electrolyte free energy   =      -0.00121408 Ry
     correction to one-el term =       3.13150980 Ry

     WARNING: you are using the parabolic pbc correction;
              the potential shift above must be added to
              band and Fermi energies.

     convergence has been achieved in  85 iterations
     The dielectric solvent contribution to forces
     atom    1 type  1   force =    -0.00026136    0.00000010    0.01661158
     atom    2 type  1   force =     0.00026103   -0.00000258   -0.01659491
     atom    3 type  1   force =    -0.00027032   -0.00000003    0.00858038
     atom    4 type  1   force =    -0.00000342   -0.00000007   -0.00005166
     atom    5 type  1   force =     0.00000354    0.00000001    0.00006805
     atom    6 type  1   force =     0.00027028    0.00000044   -0.00856240
     atom    7 type  1   force =    -0.00026080    0.00000007    0.01660843
     atom    8 type  1   force =     0.00026103    0.00000275   -0.01659489
     atom    9 type  1   force =    -0.00027029   -0.00000002    0.00857860
     atom   10 type  1   force =    -0.00000342    0.00000008   -0.00005166
     atom   11 type  1   force =     0.00000332    0.00000000    0.00006714
     atom   12 type  1   force =     0.00027028   -0.00000049   -0.00856238
     atom   13 type  1   force =    -0.00026026    0.00000010    0.01661076
     atom   14 type  1   force =     0.00026062   -0.00000277   -0.01659466
     atom   15 type  1   force =    -0.00027030   -0.00000003    0.00858140
     atom   16 type  1   force =    -0.00000347   -0.00000028   -0.00005164
     atom   17 type  1   force =     0.00000338    0.00000001    0.00006792
     atom   18 type  1   force =     0.00027028    0.00000039   -0.00856273
     atom   19 type  1   force =    -0.00026082    0.00000007    0.01660878
     atom   20 type  1   force =     0.00026062    0.00000295   -0.01659464
     atom   21 type  1   force =    -0.00027028   -0.00000002    0.00857809
     atom   22 type  1   force =    -0.00000347    0.00000029   -0.00005163
     atom   23 type  1   force =     0.00000356    0.00000000    0.00006719
     atom   24 type  1   force =     0.00027028   -0.00000043   -0.00856271

     Forces acting on atoms (cartesian axes, Ry/au):

     atom    1 type  1   force =    -0.00000876    0.00000000   -0.00000079
     atom    2 type  1   force =     0.00000799   -0.00000072    0.00000116
     atom    3 type  1   force =    -0.00000516    0.00000000    0.00000464
     atom    4 type  1   force =    -0.00000032    0.00000273   -0.00000257
     atom    5 type  1   force =     0.00000167    0.00000000   -0.00000165
     atom    6 type  1   force =     0.00000736    0.00000271    0.00000185
     atom    7 type  1   force =    -0.00000984    0.00000000    0.00000069
     atom    8 type  1   force =     0.00000799    0.00000072    0.00000116
     atom    9 type  1   force =    -0.00000852    0.00000000    0.00000070
     atom   10 type  1   force =    -0.00000032   -0.00000273   -0.00000257
     atom   11 type  1   force =    -0.00000079    0.00000000   -0.00000402
     atom   12 type  1   force =     0.00000736   -0.00000271    0.00000185
     atom   13 type  1   force =    -0.00000231    0.00000000   -0.00000091
     atom   14 type  1   force =     0.00000150    0.00000036    0.00000100
     atom   15 type  1   force =    -0.00000624    0.00000000    0.00000407
     atom   16 type  1   force =    -0.00000229   -0.00000019   -0.00000298
     atom   17 type  1   force =     0.00000215    0.00000000   -0.00000341
     atom   18 type  1   force =     0.00000479    0.00000118   -0.00000012
     atom   19 type  1   force =    -0.00000048    0.00000000    0.00000090
     atom   20 type  1   force =     0.00000150   -0.00000036    0.00000100
     atom   21 type  1   force =    -0.00000379    0.00000000    0.00000475
     atom   22 type  1   force =    -0.00000229    0.00000019   -0.00000298
     atom   23 type  1   force =     0.00000400    0.00000000   -0.00000165
     atom   24 type  1   force =     0.00000479   -0.00000118   -0.00000012
     The non-local contrib.  to forces
     atom    1 type  1   force =     0.00064436    0.00000000    0.08600836
     atom    2 type  1   force =    -0.00064502   -0.00000149   -0.08600449
     atom    3 type  1   force =     0.00150862    0.00000000   -0.00980076
     atom    4 type  1   force =    -0.00017867    0.00000275   -0.00270951
     atom    5 type  1   force =     0.00017968    0.00000000    0.00270509
     atom    6 type  1   force =    -0.00150707    0.00000244    0.00980783
     atom    7 type  1   force =     0.00064620    0.00000000    0.08600798
     atom    8 type  1   force =    -0.00064502    0.00000149   -0.08600449
     atom    9 type  1   force =     0.00150504    0.00000000   -0.00980419
     atom   10 type  1   force =    -0.00017867   -0.00000275   -0.00270951
     atom   11 type  1   force =     0.00017641    0.00000000    0.00270300
     atom   12 type  1   force =    -0.00150707   -0.00000244    0.00980783
     atom   13 type  1   force =     0.00065357    0.00000000    0.08600685
     atom   14 type  1   force =    -0.00065112   -0.00000047   -0.08600426
     atom   15 type  1   force =     0.00150571    0.00000000   -0.00979711
     atom   16 type  1   force =    -0.00018102    0.00000030   -0.00270944
     atom   17 type  1   force =     0.00017768    0.00000000    0.00270330
     atom   18 type  1   force =    -0.00150830    0.00000173    0.00980385
     atom   19 type  1   force =     0.00065155    0.00000000    0.08600922
     atom   20 type  1   force =    -0.00065112    0.00000047   -0.08600426
     atom   21 type  1   force =     0.00151002    0.00000000   -0.00980092
     atom   22 type  1   force =    -0.00018102   -0.00000030   -0.00270944
     atom   23 type  1   force =     0.00018330    0.00000000    0.00270451
     atom   24 type  1   force =    -0.00150830   -0.00000173    0.00980385
     The ionic contribution  to forces
     atom    1 type  1   force =    -0.00153159   -0.00000002    8.49878512
     atom    2 type  1   force =     0.00151508   -0.00001693   -8.49871844
     atom    3 type  1   force =    -0.00423639    0.00000001   -5.49644454
     atom    4 type  1   force =     0.00174073    0.00008426   -1.82064483
     atom    5 type  1   force =    -0.00170591   -0.00000001    1.82064824
     atom    6 type  1   force =     0.00427801    0.00009146    5.49635194
     atom    7 type  1   force =    -0.00153251    0.00000004    8.49875435
     atom    8 type  1   force =     0.00151507    0.00001691   -8.49871837
     atom    9 type  1   force =    -0.00430830    0.00000002   -5.49642106
     atom   10 type  1   force =     0.00174074   -0.00008429   -1.82064474
     atom   11 type  1   force =    -0.00177190    0.00000004    1.82069844
     atom   12 type  1   force =     0.00427801   -0.00009149    5.49635214
     atom   13 type  1   force =    -0.00141058   -0.00000002    8.49874382
     atom   14 type  1   force =     0.00141217    0.00000652   -8.49870984
     atom   15 type  1   force =    -0.00428414    0.00000001   -5.49634272
     atom   16 type  1   force =     0.00170732    0.00002837   -1.82060714
     atom   17 type  1   force =    -0.00172901   -0.00000001    1.82070102
     atom   18 type  1   force =     0.00425020    0.00006280    5.49636142
     atom   19 type  1   force =    -0.00140387    0.00000004    8.49878581
     atom   20 type  1   force =     0.00141218   -0.00000653   -8.49870975
     atom   21 type  1   force =    -0.00421994    0.00000002   -5.49654062
     atom   22 type  1   force =     0.00170732   -0.00002840   -1.82060706
     atom   23 type  1   force =    -0.00167289    0.00000004    1.82056518
     atom   24 type  1   force =     0.00425021   -0.00006283    5.49636163
     The local contribution  to forces
     atom    1 type  1   force =     0.00113982   -0.00004241   -8.60140586
     atom    2 type  1   force =    -0.00112426   -0.00002498    8.60132077
     atom    3 type  1   force =     0.00299292   -0.00004365    5.49766954
     atom    4 type  1   force =    -0.00156419   -0.00012861    1.82340460
     atom    5 type  1   force =     0.00152435   -0.00004497   -1.82342303
     atom    6 type  1   force =    -0.00303590   -0.00013503   -5.49759318
     atom    7 type  1   force =     0.00113726   -0.00004381   -8.60137008
     atom    8 type  1   force =    -0.00112194   -0.00006570    8.60131717
     atom    9 type  1   force =     0.00306503   -0.00004446    5.49764734
     atom   10 type  1   force =    -0.00155374    0.00003983    1.82340218
     atom   11 type  1   force =     0.00159138   -0.00004171   -1.82347261
     atom   12 type  1   force =    -0.00303183    0.00004831   -5.49759805
     atom   13 type  1   force =     0.00101496   -0.00004241   -8.60136233
     atom   14 type  1   force =    -0.00102163   -0.00004817    8.60131180
     atom   15 type  1   force =     0.00304249   -0.00004365    5.49756248
     atom   16 type  1   force =    -0.00153035   -0.00007299    1.82336641
     atom   17 type  1   force =     0.00155009   -0.00004497   -1.82347566
     atom   18 type  1   force =    -0.00300943   -0.00010714   -5.49760033
     atom   19 type  1   force =     0.00101265   -0.00004381   -8.60140291
     atom   20 type  1   force =    -0.00101873   -0.00004251    8.60130759
     atom   21 type  1   force =     0.00297640   -0.00004446    5.49776820
     atom   22 type  1   force =    -0.00151990   -0.00001580    1.82336398
     atom   23 type  1   force =     0.00149003   -0.00004171   -1.82333855
     atom   24 type  1   force =    -0.00300537    0.00002041   -5.49760520
     The core correction contribution to forces
     atom    1 type  1   force =     0.00000000    0.00000000    0.00000000
     atom    2 type  1   force =     0.00000000    0.00000000    0.00000000
     atom    3 type  1   force =     0.00000000    0.00000000    0.00000000
     atom    4 type  1   force =     0.00000000    0.00000000    0.00000000
     atom    5 type  1   force =     0.00000000    0.00000000    0.00000000
     atom    6 type  1   force =     0.00000000    0.00000000    0.00000000
     atom    7 type  1   force =     0.00000000    0.00000000    0.00000000
     atom    8 type  1   force =     0.00000000    0.00000000    0.00000000
     atom    9 type  1   force =     0.00000000    0.00000000    0.00000000
     atom   10 type  1   force =     0.00000000    0.00000000    0.00000000
     atom   11 type  1   force =     0.00000000    0.00000000    0.00000000
     atom   12 type  1   force =     0.00000000    0.00000000    0.00000000
     atom   13 type  1   force =     0.00000000    0.00000000    0.00000000
     atom   14 type  1   force =     0.00000000    0.00000000    0.00000000
     atom   15 type  1   force =     0.00000000    0.00000000    0.00000000
     atom   16 type  1   force =     0.00000000    0.00000000    0.00000000
     atom   17 type  1   force =     0.00000000    0.00000000    0.00000000
     atom   18 type  1   force =     0.00000000    0.00000000    0.00000000
     atom   19 type  1   force =     0.00000000    0.00000000    0.00000000
     atom   20 type  1   force =     0.00000000    0.00000000    0.00000000
     atom   21 type  1   force =     0.00000000    0.00000000    0.00000000
     atom   22 type  1   force =     0.00000000    0.00000000    0.00000000
     atom   23 type  1   force =     0.00000000    0.00000000    0.00000000
     atom   24 type  1   force =     0.00000000    0.00000000    0.00000000
     The Hubbard contrib.    to forces
     atom    1 type  1   force =     0.00000000    0.00000000    0.00000000
     atom    2 type  1   force =     0.00000000    0.00000000    0.00000000
     atom    3 type  1   force =     0.00000000    0.00000000    0.00000000
     atom    4 type  1   force =     0.00000000    0.00000000    0.00000000
     atom    5 type  1   force =     0.00000000    0.00000000    0.00000000
     atom    6 type  1   force =     0.00000000    0.00000000    0.00000000
     atom    7 type  1   force =     0.00000000    0.00000000    0.00000000
     atom    8 type  1   force =     0.00000000    0.00000000    0.00000000
     atom    9 type  1   force =     0.00000000    0.00000000    0.00000000
     atom   10 type  1   force =     0.00000000    0.00000000    0.00000000
     atom   11 type  1   force =     0.00000000    0.00000000    0.00000000
     atom   12 type  1   force =     0.00000000    0.00000000    0.00000000
     atom   13 type  1   force =     0.00000000    0.00000000    0.00000000
     atom   14 type  1   force =     0.00000000    0.00000000    0.00000000
     atom   15 type  1   force =     0.00000000    0.00000000    0.00000000
     atom   16 type  1   force =     0.00000000    0.00000000    0.00000000
     atom   17 type  1   force =     0.00000000    0.00000000    0.00000000
     atom   18 type  1   force =     0.00000000    0.00000000    0.00000000
     atom   19 type  1   force =     0.00000000    0.00000000    0.00000000
     atom   20 type  1   force =     0.00000000    0.00000000    0.00000000
     atom   21 type  1   force =     0.00000000    0.00000000    0.00000000
     atom   22 type  1   force =     0.00000000    0.00000000    0.00000000
     atom   23 type  1   force =     0.00000000    0.00000000    0.00000000
     atom   24 type  1   force =     0.00000000    0.00000000    0.00000000
     The SCF correction term to forces
     atom    1 type  1   force =     0.00000000   -0.00000000    0.00000000
     atom    2 type  1   force =     0.00000000   -0.00000000   -0.00000001
     atom    3 type  1   force =     0.00000000   -0.00000000    0.00000002
     atom    4 type  1   force =     0.00000000    0.00000000   -0.00000000
     atom    5 type  1   force =     0.00000000   -0.00000000    0.00000001
     atom    6 type  1   force =     0.00000000    0.00000000   -0.00000001
     atom    7 type  1   force =    -0.00000000    0.00000000    0.00000001
     atom    8 type  1   force =     0.00000000    0.00000000   -0.00000001
     atom    9 type  1   force =    -0.00000000   -0.00000000    0.00000001
     atom   10 type  1   force =     0.00000000   -0.00000000   -0.00000000
     atom   11 type  1   force =    -0.00000000    0.00000000    0.00000001
     atom   12 type  1   force =     0.00000000   -0.00000000   -0.00000001
     atom   13 type  1   force =    -0.00000000   -0.00000000    0.00000000
     atom   14 type  1   force =     0.00000000   -0.00000000   -0.00000000
     atom   15 type  1   force =    -0.00000000   -0.00000000    0.00000002
     atom   16 type  1   force =     0.00000000    0.00000000    0.00000000
     atom   17 type  1   force =    -0.00000000   -0.00000000    0.00000001
     atom   18 type  1   force =     0.00000000    0.00000000   -0.00000001
     atom   19 type  1   force =    -0.00000000   -0.00000000    0.00000001
     atom   20 type  1   force =     0.00000000    0.00000000   -0.00000000
     atom   21 type  1   force =    -0.00000000   -0.00000000    0.00000001
     atom   22 type  1   force =     0.00000000   -0.00000000    0.00000000
     atom   23 type  1   force =    -0.00000000    0.00000000    0.00000001
     atom   24 type  1   force =     0.00000000   -0.00000000   -0.00000001

     Total force =     0.000029     Total SCF correction =     0.000000
     Message from routine punch:
     Nothing written, as per user request (disk_io='none')

     General routines

     Parallel routines

     PAW routines

     Environ routines

   This run was terminated on:  21:36:39  25Dec2024

   JOB DONE.