     Program PWSCF v.7.4 starts on  3Jan2025 at 11:39:35

     Reading input from espresso.pwi
Warning: card &CELL ignored
Warning: card    PRESS_CONV_THR   = 0.1 ignored
Warning: card    CELL_DOFREE      = 'ALL' ignored
Warning: card / ignored
Warning: card &FCP ignored
Warning: card / ignored
Warning: card &RISM ignored
Warning: card / ignored

     Current dimensions of program PWSCF are:
     Max number of different atomic species (ntypx) = 10
     Max number of k-points (npk) =  40000
     Max angular momentum in pseudopotentials (lmaxx) =  4

     IMPORTANT: XC functional enforced from input :
     Exchange-correlation= PBE
                           (   1   4   3   4   0   0   0)
     Any further DFT definition will be discarded
     Please, verify this is what you really want

     Reading input from environ.in:
     * using ionic solvent mode
     * setting boundary derivatives method to SSCS default
     * setting electrolyte-boundary derivatives method to SSCS default

Environ Warning (1001): card EOF ignored

     K-points division:     npool     =       2
     R & G space division:  proc/nbgrp/npool/nimage =     256
     Subspace diagonalization in iterative solution of the eigenvalue problem:
     one sub-group per band group will be used

     Using Slab Decomposition

     bravais-lattice index     =           12
     lattice parameter (alat)  =      18.3607  a.u.
     unit-cell volume          =   35212.2554 (a.u.)^3
     number of atoms/cell      =           68
     number of atomic types    =            1
     number of electrons       =       204.00
     number of Kohn-Sham states=          153
     kinetic-energy cutoff     =      80.0000  Ry
     charge density cutoff     =     800.0000  Ry
     scf convergence threshold =      1.0E-06
     mixing beta               =       0.2000
     number of iterations used =            8  local-TF  mixing
     energy convergence thresh.=      1.0E-05
     force convergence thresh. =      3.9E-04
     Exchange-correlation= PBE
                           (   1   4   3   4   0   0   0)
     nstep                     =          999

                                  Environ Setup Summary

          O. Andreussi, I. Dabo and N. Marzari, J. Chem. Phys. 136, 064102 (2012)
          F. Nattino, M. Truscott, N. Marzari, and O. Andreussi, J. Chem. Phys. 150, 041722 (2019)

     in publications or presentations arising from this work.

     Parameters

     compensation onset threshold      =               0.1000E+00
     static permittivity               =                    89.90
     surface tension in input (dyn/cm) =                    37.30
     surface tension in internal units =               0.4792E-04

     Solvent Boundary

     solvent mode                      =                    ionic
     derivatives method                =                   lowmem
     electrolyte derivatives method    =                   lowmem
     numerical core for derivatives    =                      fft
     switching function adopted        =                     SCCS
     density limit for vacuum region   =               0.5000E-02
     density limit for bulk solvent    =               0.1000E-03
     soft-sphere radius mode           =                    bondi
     soft-sphere softness              =                     0.50
     alpha                             =                     1.32

     Electrostatic Setup

     electrostatic problem to solve    =                    modpb
     numerical solver adopted          =                   newton
     type of auxiliary density adopted =                     none
     numerical core for poisson        =                      fft
     adopting a nested solver scheme
     inner solver                      =                       cg
     inner core                        =                      fft
     type of pbc corrections           =                parabolic
     numerical core for corrections    =                      1da

     >>>>> Grand-Canonical SCF is activated <<<<<
     Initial Total Charge  =     0.000000 e
     Target Fermi Energy   =    -3.404000 eV
     Thr. of Fermi Energy  =     0.001000 eV
     Wave-shift of Kerker  =     0.400000 bohr^-1
     Wave-shift of Hartree =     1.500000 bohr^-1
     Mixing Rate of Fermi  =     0.050000

     celldm(1)=  18.360747  celldm(2)=   1.060660  celldm(3)=   5.518976
     celldm(4)=  -0.235702  celldm(5)=   0.000000  celldm(6)=   0.000000

     crystal axes: (cart. coord. in units of alat)
               a(1) = (   1.000000   0.000000   0.000000 )
               a(2) = (  -0.250000   1.030776   0.000000 )
               a(3) = (   0.000000   0.000000   5.518976 )

     reciprocal axes: (cart. coord. in units 2 pi/alat)
               b(1) = (  1.000000  0.242536 -0.000000 )
               b(2) = (  0.000000  0.970143  0.000000 )
               b(3) = (  0.000000 -0.000000  0.181193 )

     PseudoPot. # 1 for Li read from file:
     /work/e89/e89/ba3g18/Repos/Pseudopotentials/Pslibrary/Li.pbe-sl-kjpaw_psl.1.0.0.UPF
     MD5 check sum: 3f4d2cafebb47c6c3aa8ed472e6f074d
     Pseudo is Projector augmented-wave, Zval =  3.0
     Generated using 'atomic' code by A. Dal Corso  v.7.4
     Shape of augmentation charge: PSQ
     Using radial grid of 1017 points,  4 beta functions with:
                l(1) =   0
                l(2) =   0
                l(3) =   1
                l(4) =   1
     Q(r) pseudized with 0 coefficients

     atomic species   valence    mass     pseudopotential
     Li                3.00     6.94000     Li( 1.00)

     No symmetry found

                                    s                        frac. trans.

      isym =  1     identity

 cryst.   s( 1) = (     1          0          0      )
                  (     0          1          0      )
                  (     0          0          1      )

 cart.    s( 1) = (  1.0000000  0.0000000  0.0000000 )
                  (  0.0000000  1.0000000  0.0000000 )
                  (  0.0000000  0.0000000  1.0000000 )

     point group C_1 (1)
     there are  1 classes
     the character table:

       E
A      1.00

     the symmetry operations in each class and the name of the first element:

     E        1
          identity

   Cartesian axes

     site n.     atom                  positions (alat units)
         1        Li     tau(   1) = (  -0.0003230   0.0592509   2.0458048  )
         2        Li     tau(   2) = (   0.0002647   0.6014000   3.4433152  )
         3        Li     tau(   3) = (   0.2502167   0.7943693   3.2643922  )
         4        Li     tau(   4) = (   0.2503462   0.1958770   3.2880654  )
         5        Li     tau(   5) = (   0.0002648   0.3647060   3.1749072  )
         6        Li     tau(   6) = (   0.2500997   0.5537930   2.9931219  )
         7        Li     tau(   7) = (   0.2499539   0.9090223   2.6495224  )
         8        Li     tau(   8) = (   0.0002495   0.9657697   3.1013866  )
         9        Li     tau(   9) = (   0.0001293   0.1221121   2.9084060  )
        10        Li     tau(  10) = (   0.2499304   0.3088486   2.7183358  )
        11        Li     tau(  11) = (  -0.0001628   0.4817552   2.5623076  )
        12        Li     tau(  12) = (   0.2498343   0.6661409   2.3749754  )
        13        Li     tau(  13) = (   0.0000485   0.7237585   2.8333156  )
        14        Li     tau(  14) = (   0.2498227   0.0514809   2.5081486  )
        15        Li     tau(  15) = (  -0.0003380   0.2413124   2.3131323  )
        16        Li     tau(  16) = (   0.2498105   0.3846870   2.1052649  )
        17        Li     tau(  17) = (  -0.0002557   0.8461988   2.2326432  )
        18        Li     tau(  18) = (   0.0003276   0.0618591   3.2058438  )
        19        Li     tau(  19) = (   0.0001662   0.6678053   3.1440008  )
        20        Li     tau(  20) = (   0.2501621   0.8521899   2.9566690  )
        21        Li     tau(  21) = (   0.2501771   0.2516851   3.0108373  )
        22        Li     tau(  22) = (   0.0000451   0.4249231   2.8694540  )
        23        Li     tau(  23) = (   0.2499518   0.6101871   2.6856596  )
        24        Li     tau(  24) = (   0.2497345   0.9692398   2.3440696  )
        25        Li     tau(  25) = (   0.0000694   1.0250957   2.8006472  )
        26        Li     tau(  26) = (  -0.0001320   0.1810568   2.6105689  )
        27        Li     tau(  27) = (   0.2497509   0.3681757   2.4175936  )
        28        Li     tau(  28) = (  -0.0002153   0.5395783   2.2545847  )
        29        Li     tau(  29) = (   0.2497361   0.7325419   2.0756593  )
        30        Li     tau(  30) = (  -0.0001000   0.7801515   2.5258520  )
        31        Li     tau(  31) = (   0.2496537   0.1072959   2.2309292  )
        32        Li     tau(  32) = (   0.0003877   0.2439245   3.4731717  )
        33        Li     tau(  33) = (   0.2502572   0.4877508   3.2863293  )
        34        Li     tau(  34) = (   0.0001877   0.9492523   3.4137132  )
        35        Li     tau(  35) = (   0.4995884   0.0592430   2.0458052  )
        36        Li     tau(  36) = (   0.5002752   0.6013937   3.4433210  )
        37        Li     tau(  37) = (   0.7502238   0.7943713   3.2643917  )
        38        Li     tau(  38) = (   0.7503463   0.1958838   3.2880937  )
        39        Li     tau(  39) = (   0.5002620   0.3647070   3.1749056  )
        40        Li     tau(  40) = (   0.7500966   0.5537931   2.9931137  )
        41        Li     tau(  41) = (   0.7499570   0.9090230   2.6495243  )
        42        Li     tau(  42) = (   0.5002492   0.9657742   3.1013802  )
        43        Li     tau(  43) = (   0.5001318   0.1221129   2.9084071  )
        44        Li     tau(  44) = (   0.7499318   0.3088486   2.7183408  )
        45        Li     tau(  45) = (   0.4998368   0.4817561   2.5623059  )
        46        Li     tau(  46) = (   0.7498318   0.6661349   2.3749670  )
        47        Li     tau(  47) = (   0.5000500   0.7237590   2.8333231  )
        48        Li     tau(  48) = (   0.7498214   0.0514888   2.5081148  )
        49        Li     tau(  49) = (   0.4996768   0.2413099   2.3131323  )
        50        Li     tau(  50) = (   0.7498145   0.3847142   2.1052694  )
        51        Li     tau(  51) = (   0.4997416   0.8461851   2.2326630  )
        52        Li     tau(  52) = (   0.5003345   0.0618581   3.2058438  )
        53        Li     tau(  53) = (   0.5001673   0.6678108   3.1440091  )
        54        Li     tau(  54) = (   0.7501641   0.8521901   2.9566698  )
        55        Li     tau(  55) = (   0.7501782   0.2516844   3.0108515  )
        56        Li     tau(  56) = (   0.5000435   0.4249231   2.8694516  )
        57        Li     tau(  57) = (   0.7499500   0.6101870   2.6856541  )
        58        Li     tau(  58) = (   0.7497386   0.9692391   2.3440696  )
        59        Li     tau(  59) = (   0.5000679   1.0250988   2.8006284  )
        60        Li     tau(  60) = (   0.4998703   0.1810583   2.6105702  )
        61        Li     tau(  61) = (   0.7497509   0.3681724   2.4175916  )
        62        Li     tau(  62) = (   0.4997746   0.5395727   2.2545835  )
[...]
     atom   58 type  1   force =     0.00000000    0.00000000    0.00000000
     atom   59 type  1   force =     0.00000000    0.00000000    0.00000000
     atom   60 type  1   force =     0.00000000    0.00000000    0.00000000
     atom   61 type  1   force =     0.00000000    0.00000000    0.00000000
     atom   62 type  1   force =     0.00000000    0.00000000    0.00000000
     atom   63 type  1   force =     0.00000000    0.00000000    0.00000000
     atom   64 type  1   force =     0.00000000    0.00000000    0.00000000
     atom   65 type  1   force =     0.00000000    0.00000000    0.00000000
     atom   66 type  1   force =     0.00000000    0.00000000    0.00000000
     atom   67 type  1   force =     0.00000000    0.00000000    0.00000000
     atom   68 type  1   force =     0.00000000    0.00000000    0.00000000
     The Hubbard contrib.    to forces
     atom    1 type  1   force =     0.00000000    0.00000000    0.00000000
     atom    2 type  1   force =     0.00000000    0.00000000    0.00000000
     atom    3 type  1   force =     0.00000000    0.00000000    0.00000000
     atom    4 type  1   force =     0.00000000    0.00000000    0.00000000
     atom    5 type  1   force =     0.00000000    0.00000000    0.00000000
     atom    6 type  1   force =     0.00000000    0.00000000    0.00000000
     atom    7 type  1   force =     0.00000000    0.00000000    0.00000000
     atom    8 type  1   force =     0.00000000    0.00000000    0.00000000
     atom    9 type  1   force =     0.00000000    0.00000000    0.00000000
     atom   10 type  1   force =     0.00000000    0.00000000    0.00000000
     atom   11 type  1   force =     0.00000000    0.00000000    0.00000000
     atom   12 type  1   force =     0.00000000    0.00000000    0.00000000
     atom   13 type  1   force =     0.00000000    0.00000000    0.00000000
     atom   14 type  1   force =     0.00000000    0.00000000    0.00000000
     atom   15 type  1   force =     0.00000000    0.00000000    0.00000000
     atom   16 type  1   force =     0.00000000    0.00000000    0.00000000
     atom   17 type  1   force =     0.00000000    0.00000000    0.00000000
     atom   18 type  1   force =     0.00000000    0.00000000    0.00000000
     atom   19 type  1   force =     0.00000000    0.00000000    0.00000000
     atom   20 type  1   force =     0.00000000    0.00000000    0.00000000
     atom   21 type  1   force =     0.00000000    0.00000000    0.00000000
     atom   22 type  1   force =     0.00000000    0.00000000    0.00000000
     atom   23 type  1   force =     0.00000000    0.00000000    0.00000000
     atom   24 type  1   force =     0.00000000    0.00000000    0.00000000
     atom   25 type  1   force =     0.00000000    0.00000000    0.00000000
     atom   26 type  1   force =     0.00000000    0.00000000    0.00000000
     atom   27 type  1   force =     0.00000000    0.00000000    0.00000000
     atom   28 type  1   force =     0.00000000    0.00000000    0.00000000
     atom   29 type  1   force =     0.00000000    0.00000000    0.00000000
     atom   30 type  1   force =     0.00000000    0.00000000    0.00000000
     atom   31 type  1   force =     0.00000000    0.00000000    0.00000000
     atom   32 type  1   force =     0.00000000    0.00000000    0.00000000
     atom   33 type  1   force =     0.00000000    0.00000000    0.00000000
     atom   34 type  1   force =     0.00000000    0.00000000    0.00000000
     atom   35 type  1   force =     0.00000000    0.00000000    0.00000000
     atom   36 type  1   force =     0.00000000    0.00000000    0.00000000
     atom   37 type  1   force =     0.00000000    0.00000000    0.00000000
     atom   38 type  1   force =     0.00000000    0.00000000    0.00000000
     atom   39 type  1   force =     0.00000000    0.00000000    0.00000000
     atom   40 type  1   force =     0.00000000    0.00000000    0.00000000
     atom   41 type  1   force =     0.00000000    0.00000000    0.00000000
     atom   42 type  1   force =     0.00000000    0.00000000    0.00000000
     atom   43 type  1   force =     0.00000000    0.00000000    0.00000000
     atom   44 type  1   force =     0.00000000    0.00000000    0.00000000
     atom   45 type  1   force =     0.00000000    0.00000000    0.00000000
     atom   46 type  1   force =     0.00000000    0.00000000    0.00000000
     atom   47 type  1   force =     0.00000000    0.00000000    0.00000000
     atom   48 type  1   force =     0.00000000    0.00000000    0.00000000
     atom   49 type  1   force =     0.00000000    0.00000000    0.00000000
     atom   50 type  1   force =     0.00000000    0.00000000    0.00000000
     atom   51 type  1   force =     0.00000000    0.00000000    0.00000000
     atom   52 type  1   force =     0.00000000    0.00000000    0.00000000
     atom   53 type  1   force =     0.00000000    0.00000000    0.00000000
     atom   54 type  1   force =     0.00000000    0.00000000    0.00000000
     atom   55 type  1   force =     0.00000000    0.00000000    0.00000000
     atom   56 type  1   force =     0.00000000    0.00000000    0.00000000
     atom   57 type  1   force =     0.00000000    0.00000000    0.00000000
     atom   58 type  1   force =     0.00000000    0.00000000    0.00000000
     atom   59 type  1   force =     0.00000000    0.00000000    0.00000000
     atom   60 type  1   force =     0.00000000    0.00000000    0.00000000
     atom   61 type  1   force =     0.00000000    0.00000000    0.00000000
     atom   62 type  1   force =     0.00000000    0.00000000    0.00000000
     atom   63 type  1   force =     0.00000000    0.00000000    0.00000000
     atom   64 type  1   force =     0.00000000    0.00000000    0.00000000
     atom   65 type  1   force =     0.00000000    0.00000000    0.00000000
     atom   66 type  1   force =     0.00000000    0.00000000    0.00000000
     atom   67 type  1   force =     0.00000000    0.00000000    0.00000000
     atom   68 type  1   force =     0.00000000    0.00000000    0.00000000
     The SCF correction term to forces
     atom    1 type  1   force =    -0.00000002    0.00000054    0.00000111
     atom    2 type  1   force =    -0.00000003   -0.00000016   -0.00000061
     atom    3 type  1   force =     0.00000000    0.00000003    0.00000105
     atom    4 type  1   force =     0.00000001   -0.00000003   -0.00000294
     atom    5 type  1   force =     0.00000002   -0.00000006   -0.00000040
     atom    6 type  1   force =     0.00000001   -0.00000006    0.00000018
     atom    7 type  1   force =    -0.00000000   -0.00000000   -0.00000020
     atom    8 type  1   force =     0.00000001    0.00000002    0.00000040
     atom    9 type  1   force =     0.00000001    0.00000008    0.00000021
     atom   10 type  1   force =     0.00000000   -0.00000000   -0.00000012
     atom   11 type  1   force =    -0.00000000    0.00000002   -0.00000032
     atom   12 type  1   force =     0.00000000   -0.00000006   -0.00000076
     atom   13 type  1   force =     0.00000000   -0.00000006    0.00000001
     atom   14 type  1   force =     0.00000000    0.00000002   -0.00000044
     atom   15 type  1   force =    -0.00000002   -0.00000006    0.00000111
     atom   16 type  1   force =     0.00000010   -0.00000016    0.00000038
     atom   17 type  1   force =     0.00000002   -0.00000002   -0.00000062
     atom   18 type  1   force =     0.00000001    0.00000006   -0.00000128
     atom   19 type  1   force =    -0.00000001    0.00000003    0.00000065
     atom   20 type  1   force =    -0.00000000   -0.00000003    0.00000022
     atom   21 type  1   force =     0.00000001   -0.00000002    0.00000033
     atom   22 type  1   force =     0.00000001   -0.00000000    0.00000005
     atom   23 type  1   force =    -0.00000001    0.00000004   -0.00000016
     atom   24 type  1   force =     0.00000002    0.00000007    0.00000027
     atom   25 type  1   force =    -0.00000000    0.00000002   -0.00000001
     atom   26 type  1   force =     0.00000001   -0.00000005   -0.00000030
     atom   27 type  1   force =    -0.00000001   -0.00000001   -0.00000049
     atom   28 type  1   force =     0.00000001   -0.00000008   -0.00000127
     atom   29 type  1   force =     0.00000001    0.00000027    0.00000073
     atom   30 type  1   force =     0.00000000    0.00000005   -0.00000030
     atom   31 type  1   force =     0.00000001    0.00000004    0.00000275
     atom   32 type  1   force =    -0.00000001   -0.00000059   -0.00000103
     atom   33 type  1   force =    -0.00000004    0.00000006    0.00000029
     atom   34 type  1   force =     0.00000003    0.00000011   -0.00000028
     atom   35 type  1   force =     0.00000007    0.00000052    0.00000108
     atom   36 type  1   force =    -0.00000001   -0.00000020   -0.00000063
     atom   37 type  1   force =     0.00000001    0.00000002    0.00000107
     atom   38 type  1   force =     0.00000004    0.00000003   -0.00000290
     atom   39 type  1   force =     0.00000003   -0.00000007   -0.00000038
     atom   40 type  1   force =     0.00000001   -0.00000007    0.00000019
     atom   41 type  1   force =    -0.00000001   -0.00000000   -0.00000020
     atom   42 type  1   force =     0.00000000    0.00000002    0.00000039
     atom   43 type  1   force =    -0.00000000    0.00000008    0.00000023
     atom   44 type  1   force =    -0.00000000   -0.00000001   -0.00000010
     atom   45 type  1   force =    -0.00000001    0.00000001   -0.00000030
     atom   46 type  1   force =     0.00000001   -0.00000006   -0.00000074
     atom   47 type  1   force =     0.00000001   -0.00000005    0.00000001
     atom   48 type  1   force =     0.00000000    0.00000003   -0.00000046
     atom   49 type  1   force =    -0.00000000   -0.00000006    0.00000112
     atom   50 type  1   force =    -0.00000000   -0.00000019    0.00000029
     atom   51 type  1   force =    -0.00000002   -0.00000005   -0.00000066
     atom   52 type  1   force =     0.00000002    0.00000006   -0.00000132
     atom   53 type  1   force =    -0.00000000    0.00000002    0.00000064
     atom   54 type  1   force =    -0.00000000   -0.00000002    0.00000021
     atom   55 type  1   force =     0.00000001   -0.00000000    0.00000033
     atom   56 type  1   force =     0.00000000   -0.00000001    0.00000006
     atom   57 type  1   force =    -0.00000000    0.00000004   -0.00000014
     atom   58 type  1   force =     0.00000002    0.00000007    0.00000031
     atom   59 type  1   force =     0.00000001    0.00000003    0.00000001
     atom   60 type  1   force =    -0.00000001   -0.00000005   -0.00000033
     atom   61 type  1   force =    -0.00000000    0.00000001   -0.00000047
     atom   62 type  1   force =     0.00000001   -0.00000007   -0.00000126
     atom   63 type  1   force =     0.00000001    0.00000030    0.00000072
     atom   64 type  1   force =     0.00000001    0.00000005   -0.00000030
     atom   65 type  1   force =    -0.00000002    0.00000009    0.00000261
     atom   66 type  1   force =     0.00000002   -0.00000066   -0.00000103
     atom   67 type  1   force =    -0.00000002    0.00000004    0.00000036
     atom   68 type  1   force =     0.00000005    0.00000012   -0.00000029

     Total force =     0.001384     Total SCF correction =     0.000008
     Energy error            =      1.1E-06 Ry
     Gradient error          =      3.6E-04 Ry/Bohr

     bfgs converged in  12 scf cycles and   9 bfgs steps
     (criteria: energy <  1.0E-05 Ry, force <  3.9E-04 Ry/Bohr)

     End of BFGS Geometry Optimization

     Final energy             =   -1022.6314851269 Ry

     File ./Li/Lithium.bfgs deleted, as requested
Begin final coordinates

ATOMIC_POSITIONS (angstrom)
Li              -0.0030933265        0.5724616662       19.8665516844
Li               0.0025178633        5.8443365175       33.4591556380
Li               2.4310404669        7.7207338373       31.7202248423
Li               2.4322667513        1.9031063226       31.9365445631
Li               0.0028271333        3.5366864345       30.8468834169
Li               2.4297690702        5.3853005897       29.0783193520
Li               2.4284192770        8.8260198605       25.7567443113
Li               0.0024140215        9.3867295855       30.1366592125
Li               0.0013376367        1.1854998220       28.2560553079
Li               2.4282879910        2.9996616988       26.4089583740
Li              -0.0015677498        4.6799454645       24.9002805146
Li               2.4273180348        6.4711118222       23.0742054254
Li               0.0005663248        7.0354443908       27.5362827843
Li               2.4275046179        0.4999240993       24.3810705208
Li              -0.0033112038        2.3446704783       22.4799263185
Li               2.4272572775        3.7388571474       20.4527993915
Li              -0.0022773774        8.2198658697       21.6912932496
Li               0.0032058545        0.6010104125       31.1426733380
Li               0.0017175157        6.4896154907       30.5486351735
Li               2.4305771807        8.2807914741       28.7234977654
Li               2.4305312063        2.4456837227       29.2425362320
Li               0.0005875023        4.1347030191       27.8671847425
Li               2.4284588427        5.9252856426       26.0877379832
Li               2.4261957081        9.4240298746       22.7758603172
Li               0.0007265340        9.9610662832       27.2152024038
Li              -0.0013721064        1.7601605697       25.3678019531
Li               2.4266130588        3.5740256000       23.4865145793
Li              -0.0019982857        5.2399776238       21.9020200947
Li               2.4265153599        7.1163091966       20.1621796990
Li              -0.0007540727        7.5754063828       24.5452137413
Li               2.4257773856        1.0425683448       21.6858080157
Li               0.0037916852        2.3732763183       33.7546973785
Li               2.4313149615        4.7408438085       31.9307800016
Li               0.0017485156        9.2218342941       33.1686931413
Li               4.8540011801        0.5723758796       19.8665926329
Li               4.8606775823        5.8442853950       33.4592194842
Li               7.2891561808        7.7207510975       31.7202020750
Li               7.2903104212        1.9031861002       31.9368503747
Li               4.8608397957        3.5366936757       30.8468741626
Li               7.2877902170        5.3853032241       29.0782267724
Li               7.2865044383        8.8260183313       25.7567921033
Li               4.8604558026        9.3867653421       30.1365701560
Li               4.8594108996        1.1855080278       28.2560915638
Li               7.2863644488        2.9996764912       26.4090017157
Li               4.8564866970        4.6799652606       24.9002328008
Li               7.2853238551        6.4710437530       23.0741158505
Li               4.8586272925        7.0354588140       27.5363593120
Li               7.2855403554        0.5000113111       24.3806568638
Li               4.8548842302        2.3446313868       22.4799325031
Li               7.2853360830        3.7391487481       20.4528481073
Li               4.8557415059        8.2197256731       21.6915363135
Li               4.8613149962        0.6009945638       31.1426652670
Li               4.8597675364        6.4896573363       30.5487187039
Li               7.2886353713        8.2807970249       28.7234876509
Li               7.2885870046        2.4456669521       29.2426853076
Li               4.8586205317        4.1347062798       27.8672017727
Li               7.2864832418        5.9252733197       26.0876734073
Li               7.2842748885        9.4240161329       22.7758631431
Li               4.8587515117        9.9611157909       27.2150400971
Li               4.8566885000        1.7601657730       25.3678184338
Li               7.2846611436        3.5740038341       23.4864939415
Li               4.8559426671        5.2399130538       21.9020120469
Li               7.2844080402        7.1164420222       20.1621588391
Li               4.8573253943        7.5754305515       24.5453342203
Li               7.2838354369        1.0424094324       21.6851186023
Li               4.8614098701        2.3732412904       33.7546915117
Li               7.2893470396        4.7409038204       31.9306491168
Li               4.8597934876        9.2216802458       33.1686032525
End final coordinates

     Writing all to output data dir ./Li/Lithium.save/ :
     XML data file

     General routines

     Parallel routines

     PAW routines

     Environ routines

   This run was terminated on:  16:48:27   3Jan2025

   JOB DONE.