     Program PWSCF v.7.4 starts on 23Jan2025 at  0:35:53

     Reading input from espresso.pwi
Warning: card &CELL ignored
Warning: card    PRESS_CONV_THR   = 0.1 ignored
Warning: card    CELL_DOFREE      = 'ALL' ignored
Warning: card / ignored
Warning: card &FCP ignored
Warning: card / ignored
Warning: card &RISM ignored
Warning: card / ignored

     Current dimensions of program PWSCF are:
     Max number of different atomic species (ntypx) = 10
     Max number of k-points (npk) =  40000
     Max angular momentum in pseudopotentials (lmaxx) =  4

     IMPORTANT: XC functional enforced from input :
     Exchange-correlation= PBE
                           (   1   4   3   4   0   0   0)
     Any further DFT definition will be discarded
     Please, verify this is what you really want

     Found identity + (  0.5000  0.0000  0.0000) symmetry
     This is a supercell, fractional translations are disabled

     K-points division:     npool     =       3
     R & G space division:  proc/nbgrp/npool/nimage =     128
     Subspace diagonalization in iterative solution of the eigenvalue problem:
     one sub-group per band group will be used

     Using Slab Decomposition

     bravais-lattice index     =            0
     lattice parameter (alat)  =      18.3607  a.u.
     unit-cell volume          =   20789.7731 (a.u.)^3
     number of atoms/cell      =           76
     number of atomic types    =            1
     number of electrons       =       228.00
     number of Kohn-Sham states=          171
     kinetic-energy cutoff     =      80.0000  Ry
     charge density cutoff     =     800.0000  Ry
     scf convergence threshold =      1.0E-06
     mixing beta               =       0.2000
     number of iterations used =            8  local-TF  mixing
     energy convergence thresh.=      1.0E-05
     force convergence thresh. =      3.9E-04
     Exchange-correlation= PBE
                           (   1   4   3   4   0   0   0)
     nstep                     =           50

     celldm(1)=  18.360747  celldm(2)=   0.000000  celldm(3)=   0.000000
     celldm(4)=   0.000000  celldm(5)=   0.000000  celldm(6)=   0.000000

     crystal axes: (cart. coord. in units of alat)
               a(1) = (   1.000000   0.000000   0.000000 )
               a(2) = (   0.250000   1.089725   0.000000 )
               a(3) = (   0.000000   0.000000   3.082207 )

     reciprocal axes: (cart. coord. in units 2 pi/alat)
               b(1) = (  1.000000 -0.229416  0.000000 )
               b(2) = (  0.000000  0.917663  0.000000 )
               b(3) = (  0.000000  0.000000  0.324443 )

     PseudoPot. # 1 for Li read from file:
     /iridisfs/home/ba3g18/Repos/Pseudopotentials/pslibrary.1.0.0/pbe/PSEUDOPOTENTIALS/Li.pbe-sl-kjpaw_psl.1.0.0.UPF
     MD5 check sum: 3f4d2cafebb47c6c3aa8ed472e6f074d
     Pseudo is Projector augmented-wave, Zval =  3.0
     Generated using 'atomic' code by A. Dal Corso  v.7.4
     Shape of augmentation charge: PSQ
     Using radial grid of 1017 points,  4 beta functions with:
                l(1) =   0
                l(2) =   0
                l(3) =   1
                l(4) =   1
     Q(r) pseudized with 0 coefficients

     atomic species   valence    mass     pseudopotential
     Li                3.00     6.94000     Li( 1.00)

     No symmetry found

   Cartesian axes

     site n.     atom                  positions (alat units)
         1        Li     tau(   1) = (  -0.0001770  -0.0605738   2.2797070  )
         2        Li     tau(   2) = (   0.2501210   0.7571587   0.8353225  )
         3        Li     tau(   3) = (   0.2500504   0.3887273   0.9274000  )
         4        Li     tau(   4) = (   0.2501212   0.0710247   1.0344917  )
         5        Li     tau(   5) = (   0.5002994   0.8125211   1.0590048  )
         6        Li     tau(   6) = (   0.5006557   0.4369421   1.1373148  )
         7        Li     tau(   7) = (   0.5008674   0.1149169   1.2320127  )
         8        Li     tau(   8) = (   0.2511543   0.8620515   1.3060361  )
         9        Li     tau(   9) = (   0.2508665   0.5206355   1.4015414  )
        10        Li     tau(  10) = (   0.2504558   0.1655825   1.4902588  )
        11        Li     tau(  11) = (   0.4997668   0.9135336   1.5642636  )
        12        Li     tau(  12) = (   0.4993484   0.5750959   1.6402790  )
        13        Li     tau(  13) = (   0.4990461   0.2358241   1.7408240  )
        14        Li     tau(  14) = (   0.2488403   0.9823607   1.7937476  )
        15        Li     tau(  15) = (   0.2491682   0.6259267   1.8629251  )
        16        Li     tau(  16) = (   0.2494844   0.2901095   1.9728617  )
        17        Li     tau(  17) = (   0.4998102   1.0240535   2.0581352  )
        18        Li     tau(  18) = (   0.4999564   0.7212792   2.1641753  )
        19        Li     tau(  19) = (   0.4999368   0.3418649   2.2092018  )
        20        Li     tau(  20) = (   0.2501898   0.9833342   1.0240715  )
        21        Li     tau(  21) = (   0.2505156   0.6275534   1.1093455  )
        22        Li     tau(  22) = (   0.2508319   0.2917364   1.2192820  )
        23        Li     tau(  23) = (   0.5011598   1.0250274   1.2884593  )
        24        Li     tau(  24) = (   0.5009539   0.6818388   1.3413831  )
        25        Li     tau(  25) = (   0.5006518   0.3425667   1.4419278  )
        26        Li     tau(  26) = (   0.5002332   0.0041296   1.5179432  )
        27        Li     tau(  27) = (   0.2495442   0.7520805   1.5919482  )
        28        Li     tau(  28) = (   0.2491336   0.3970273   1.6806660  )
        29        Li     tau(  29) = (   0.2488457   0.0556116   1.7761707  )
        30        Li     tau(  30) = (   0.4991328   0.8027461   1.8501939  )
        31        Li     tau(  31) = (   0.4993443   0.4807211   1.9448920  )
        32        Li     tau(  32) = (   0.4997004   0.1051416   2.0232022  )
        33        Li     tau(  33) = (   0.2498789   0.8466385   2.0477154  )
        34        Li     tau(  34) = (   0.2499495   0.5289355   2.1548071  )
        35        Li     tau(  35) = (   0.2498789   0.1605039   2.2468845  )
        36        Li     tau(  36) = (   0.5001770   0.9782367   0.8025001  )
        37        Li     tau(  37) = (   0.5000630   0.5757978   0.8730048  )
        38        Li     tau(  38) = (   0.5000436   0.1963840   0.9180318  )
        39        Li     tau(  39) = (   0.4998230  -0.0605737   2.2797072  )
        40        Li     tau(  40) = (   0.7501209   0.7571587   0.8353224  )
        41        Li     tau(  41) = (   0.7500506   0.3887274   0.9273997  )
        42        Li     tau(  42) = (   0.7501211   0.0710245   1.0344917  )
        43        Li     tau(  43) = (   1.0002994   0.8125211   1.0590048  )
        44        Li     tau(  44) = (   1.0006557   0.4369421   1.1373149  )
        45        Li     tau(  45) = (   1.0008674   0.1149169   1.2320128  )
        46        Li     tau(  46) = (   0.7511544   0.8620515   1.3060361  )
        47        Li     tau(  47) = (   0.7508664   0.5206357   1.4015414  )
        48        Li     tau(  48) = (   0.7504560   0.1655825   1.4902588  )
        49        Li     tau(  49) = (   0.9997667   0.9135335   1.5642639  )
        50        Li     tau(  50) = (   0.9993483   0.5750959   1.6402792  )
        51        Li     tau(  51) = (   0.9990462   0.2358241   1.7408239  )
        52        Li     tau(  52) = (   0.7488403   0.9823607   1.7937477  )
        53        Li     tau(  53) = (   0.7491682   0.6259265   1.8629251  )
        54        Li     tau(  54) = (   0.7494842   0.2901094   1.9728617  )
        55        Li     tau(  55) = (   0.9998102   1.0240537   2.0581353  )
        56        Li     tau(  56) = (   0.9999567   0.7212792   2.1641753  )
        57        Li     tau(  57) = (   0.9999369   0.3418650   2.2092018  )
        58        Li     tau(  58) = (   0.7501897   0.9833343   1.0240715  )
        59        Li     tau(  59) = (   0.7505157   0.6275533   1.1093454  )
        60        Li     tau(  60) = (   0.7508318   0.2917365   1.2192819  )
        61        Li     tau(  61) = (   1.0011598   1.0250274   1.2884595  )
        62        Li     tau(  62) = (   1.0009539   0.6818387   1.3413832  )
        63        Li     tau(  63) = (   1.0006516   0.3425668   1.4419279  )
        64        Li     tau(  64) = (   1.0002332   0.0041294   1.5179432  )
        65        Li     tau(  65) = (   0.7495440   0.7520806   1.5919483  )
        66        Li     tau(  66) = (   0.7491336   0.3970271   1.6806660  )
        67        Li     tau(  67) = (   0.7488457   0.0556116   1.7761708  )
        68        Li     tau(  68) = (   0.9991326   0.8027460   1.8501942  )
        69        Li     tau(  69) = (   0.9993443   0.4807209   1.9448920  )
        70        Li     tau(  70) = (   0.9997006   0.1051418   2.0232021  )
        71        Li     tau(  71) = (   0.7498789   0.8466382   2.0477156  )
        72        Li     tau(  72) = (   0.7499495   0.5289356   2.1548072  )
        73        Li     tau(  73) = (   0.7498790   0.1605041   2.2468845  )
        74        Li     tau(  74) = (   1.0001769   0.9782366   0.8024999  )
        75        Li     tau(  75) = (   1.0000631   0.5757978   0.8730047  )
        76        Li     tau(  76) = (   1.0000434   0.1963838   0.9180319  )

     number of k points=    22  Marzari-Vanderbilt smearing, width (Ry)=  0.0100
                       cart. coord. in units 2pi/alat
        k(    1) = (   0.0000000   0.0000000   0.0000000), wk =   0.0476190
        k(    2) = (   0.0000000   0.1529438   0.0000000), wk =   0.0952381
        k(    3) = (   0.0000000   0.3058876   0.0000000), wk =   0.0952381
        k(    4) = (   0.0000000  -0.4588314   0.0000000), wk =   0.0476190
        k(    5) = (   0.1428571  -0.0327737   0.0000000), wk =   0.0952381
        k(    6) = (   0.1428571   0.1201701   0.0000000), wk =   0.0952381
        k(    7) = (   0.1428571   0.2731139   0.0000000), wk =   0.0952381
        k(    8) = (   0.1428571  -0.4916050   0.0000000), wk =   0.0952381
        k(    9) = (   0.1428571  -0.3386612   0.0000000), wk =   0.0952381
        k(   10) = (   0.1428571  -0.1857175   0.0000000), wk =   0.0952381
        k(   11) = (   0.2857143  -0.0655473   0.0000000), wk =   0.0952381
        k(   12) = (   0.2857143   0.0873964   0.0000000), wk =   0.0952381
        k(   13) = (   0.2857143   0.2403402   0.0000000), wk =   0.0952381
        k(   14) = (   0.2857143  -0.5243787   0.0000000), wk =   0.0952381
        k(   15) = (   0.2857143  -0.3714349   0.0000000), wk =   0.0952381
        k(   16) = (   0.2857143  -0.2184911   0.0000000), wk =   0.0952381
        k(   17) = (   0.4285714  -0.0983210   0.0000000), wk =   0.0952381
        k(   18) = (   0.4285714   0.0546228   0.0000000), wk =   0.0952381
        k(   19) = (   0.4285714   0.2075666   0.0000000), wk =   0.0952381
        k(   20) = (   0.4285714  -0.5571524   0.0000000), wk =   0.0952381
        k(   21) = (   0.4285714  -0.4042086   0.0000000), wk =   0.0952381
        k(   22) = (   0.4285714  -0.2512648   0.0000000), wk =   0.0952381

     Initial potential from superposition of free atoms

[...]
Li               7.2760585937        9.5443884645       17.4269756353
Li               7.2790296191        6.0818416443       18.0996919780
Li               7.2821146457        2.8190265704       19.1689268249
Li               9.7141750721        9.9495952150       19.9975002859
Li               9.7156234399        7.0076456110       21.0266812626
Li               9.7154239473        3.3211678856       21.4647068477
Li               7.2889795987        9.5543669838        9.9494952526
Li               7.2920138909        6.0970666883       10.7780707832
Li               7.2951053697        2.8342506472       11.8473044042
Li               9.7270976842        9.9595733453       12.5200254479
Li               9.7252434739        6.6245910600       13.0342891713
Li               9.7223150653        3.3278580291       14.0098042615
Li               9.7183903668        0.0401249701       14.7486080087
Li               7.2827411883        7.3078239179       15.4674058872
Li               7.2789112650        3.8578786004       16.3290489062
Li               7.2760893519        0.5402317482       17.2559237777
Li               9.7077882215        7.7992610757       17.9761105987
Li               9.7098054388        4.6711191774       18.8966330661
Li               9.7130325817        1.0213302125       19.6586518288
Li               7.2857239052        8.2259350323       19.8956020034
Li               7.2864465381        5.1386920294       20.9361218065
Li               7.2859808531        1.5598576428       21.8306168072
Li               9.7177631187        9.5039735719        7.7974173266
Li               9.7167540636        5.5949264142        8.4822874721
Li               9.7165534703        1.9084463723        8.9203179703

     Message from routine punch:
     Nothing written, as per user request (disk_io='none')
     NEW-OLD atomic charge density approx. for the potential

[...]

     Self-consistent Calculation

[...]

     Threshold (ethr) on eigenvalues was too large:
     Diagonalizing with lowered threshold

     Davidson diagonalization with overlap
     ethr =  7.74E-10,  avg # of iterations =  4.1

[...]

     total energy              =   -1142.86450564 Ry
     estimated scf accuracy    <          1.5E-12 Ry

     iteration # 12     ecut=    80.00 Ry     beta= 0.20
     Davidson diagonalization with overlap
     ethr =  1.00E-13,  avg # of iterations =  2.0

     negative rho (up, down):  1.420E-04 0.000E+00

     End of self-consistent calculation

[...]

          k = 0.4286-0.2513 0.0000 (251170 PWs)   bands (ev):

   -48.4993 -48.4993 -48.4993 -48.4993 -48.1274 -48.1274 -48.1273 -48.1273
   -48.0781 -48.0781 -48.0781 -48.0781 -48.0349 -48.0348 -48.0348 -48.0348
   -47.8809 -47.8809 -47.8809 -47.8809 -47.5030 -47.5026 -47.5026 -47.5022
   -47.5013 -47.5012 -47.5011 -47.5010 -47.4938 -47.4936 -47.4933 -47.4931
   -47.4859 -47.4857 -47.4855 -47.4852 -47.4811 -47.4810 -47.4776 -47.4774
   -47.4705 -47.4700 -47.4690 -47.4688 -47.4646 -47.4643 -47.4641 -47.4639
   -47.4563 -47.4562 -47.4562 -47.4562 -47.4531 -47.4531 -47.4526 -47.4523
   -47.4502 -47.4494 -47.4487 -47.4485 -47.4435 -47.4433 -47.4431 -47.4429
   -47.4384 -47.4384 -47.4379 -47.4379 -47.4319 -47.4319 -47.4312 -47.4312
   -47.4016 -47.4015 -47.4015 -47.4014  -4.1313  -4.0356  -3.8540  -3.7569
    -3.6791  -3.4218  -3.3415  -3.2662  -3.0859  -2.9915  -2.9253  -2.8079
    -2.7149  -2.6811  -2.5955  -2.5596  -2.3163  -2.3087  -2.2404  -2.2110
    -1.8609  -1.8275  -1.8116  -1.7980  -1.7452  -1.6269  -1.5142  -1.5107
    -1.5027  -1.4526  -1.4374  -1.2348  -1.2079  -1.1809  -1.0201  -0.9888
    -0.9851  -0.9562  -0.9452  -0.9267  -0.8676  -0.6937  -0.6559  -0.6495
    -0.6058  -0.4766  -0.3843  -0.3752  -0.3376  -0.2985  -0.2513  -0.2097
    -0.1518  -0.1281  -0.1068  -0.0975  -0.0892  -0.0278  -0.0266  -0.0199
     0.0796   0.1109   0.1153   0.1281   0.1567   0.2477   0.2867   0.3116
     0.3490   0.4020   0.4511   0.5383   0.6089   0.7383   0.9400   1.0240
     1.2042   1.3062   1.3319   1.4373   1.4445   1.6728   1.7483   1.9074
     2.0221   2.0295   2.1645   2.2212   2.2274   2.2523   2.3099   2.3467
     2.3530   2.4272   2.4334

     the Fermi energy is    -0.9491 ev

!    total energy              =   -1142.86450564 Ry
     total all-electron energy =     -1142.865123 Ry
     estimated scf accuracy    <          5.5E-13 Ry
     smearing contrib. (-TS)   =       0.00036083 Ry
     internal energy E=F+TS    =   -1142.86486647 Ry

     The total energy is F=E-TS. E is the sum of the following terms:
     one-electron contribution =   -4988.57559193 Ry
     hartree contribution      =    2385.73259032 Ry
     xc contribution           =    -272.50204141 Ry
     ewald contribution        =    1725.77968144 Ry
     one-center paw contrib.   =       6.70049512 Ry

     convergence has been achieved in  12 iterations

     Forces acting on atoms (cartesian axes, Ry/au):

     atom    1 type  1   force =     0.00001268    0.00017783   -0.00005465
     atom    2 type  1   force =    -0.00002183   -0.00011334    0.00007762
     atom    3 type  1   force =     0.00003372    0.00012480    0.00005940
     atom    4 type  1   force =     0.00004387    0.00001292    0.00008073
     atom    5 type  1   force =     0.00003619    0.00006654   -0.00022249
     atom    6 type  1   force =    -0.00002249   -0.00009878    0.00004173
     atom    7 type  1   force =    -0.00003526    0.00006021    0.00013524
     atom    8 type  1   force =    -0.00006774    0.00001579    0.00037842
     atom    9 type  1   force =    -0.00007098   -0.00008548    0.00012264
     atom   10 type  1   force =    -0.00002731   -0.00012516    0.00003511
     atom   11 type  1   force =    -0.00000464   -0.00001303   -0.00002920
     atom   12 type  1   force =     0.00003269    0.00013349    0.00001079
     atom   13 type  1   force =     0.00003895    0.00006255   -0.00032908
     atom   14 type  1   force =     0.00007345   -0.00007379   -0.00030189
     atom   15 type  1   force =     0.00001621    0.00007394   -0.00017388
     atom   16 type  1   force =     0.00001503    0.00005855    0.00007293
     atom   17 type  1   force =    -0.00002246   -0.00005688    0.00008590
     atom   18 type  1   force =    -0.00001688   -0.00011137   -0.00018673
     atom   19 type  1   force =    -0.00001300   -0.00010102   -0.00002481
     atom   20 type  1   force =     0.00002236    0.00005711   -0.00008576
     atom   21 type  1   force =    -0.00001501   -0.00005852   -0.00007292
     atom   22 type  1   force =    -0.00001622   -0.00007396    0.00017393
     atom   23 type  1   force =    -0.00007349    0.00007365    0.00030176
     atom   24 type  1   force =    -0.00003901   -0.00006247    0.00032904
     atom   25 type  1   force =    -0.00003269   -0.00013340   -0.00001065
     atom   26 type  1   force =     0.00000474    0.00001279    0.00002941
     atom   27 type  1   force =     0.00002734    0.00012533   -0.00003512
     atom   28 type  1   force =     0.00007102    0.00008530   -0.00012279
     atom   29 type  1   force =     0.00006783   -0.00001607   -0.00037829
     atom   30 type  1   force =     0.00003529   -0.00006031   -0.00013523
     atom   31 type  1   force =     0.00002237    0.00009859   -0.00004170
     atom   32 type  1   force =    -0.00003615   -0.00006656    0.00022254
     atom   33 type  1   force =    -0.00004389   -0.00001288   -0.00008058
     atom   34 type  1   force =    -0.00003375   -0.00012472   -0.00005977
     atom   35 type  1   force =     0.00002196    0.00011340   -0.00007759
     atom   36 type  1   force =    -0.00001261   -0.00017773    0.00005440
     atom   37 type  1   force =     0.00001297    0.00010098    0.00002506
     atom   38 type  1   force =     0.00001682    0.00011133    0.00018671
     atom   39 type  1   force =     0.00001267    0.00017779   -0.00005477
     atom   40 type  1   force =    -0.00002188   -0.00011344    0.00007763
     atom   41 type  1   force =     0.00003361    0.00012481    0.00005948
     atom   42 type  1   force =     0.00004376    0.00001276    0.00008062
     atom   43 type  1   force =     0.00003621    0.00006661   -0.00022253
     atom   44 type  1   force =    -0.00002249   -0.00009854    0.00004164
     atom   45 type  1   force =    -0.00003526    0.00006030    0.00013533
     atom   46 type  1   force =    -0.00006778    0.00001589    0.00037845
     atom   47 type  1   force =    -0.00007092   -0.00008540    0.00012273
     atom   48 type  1   force =    -0.00002743   -0.00012516    0.00003498
     atom   49 type  1   force =    -0.00000471   -0.00001296   -0.00002924
     atom   50 type  1   force =     0.00003258    0.00013347    0.00001080
     atom   51 type  1   force =     0.00003887    0.00006255   -0.00032905
     atom   52 type  1   force =     0.00007357   -0.00007376   -0.00030196
     atom   53 type  1   force =     0.00001620    0.00007426   -0.00017402
     atom   54 type  1   force =     0.00001503    0.00005871    0.00007292
     atom   55 type  1   force =    -0.00002241   -0.00005726    0.00008585
     atom   56 type  1   force =    -0.00001682   -0.00011131   -0.00018671
     atom   57 type  1   force =    -0.00001304   -0.00010089   -0.00002490
     atom   58 type  1   force =     0.00002243    0.00005718   -0.00008575
     atom   59 type  1   force =    -0.00001484   -0.00005867   -0.00007294
     atom   60 type  1   force =    -0.00001626   -0.00007401    0.00017401
     atom   61 type  1   force =    -0.00007360    0.00007362    0.00030170
     atom   62 type  1   force =    -0.00003904   -0.00006263    0.00032901
     atom   63 type  1   force =    -0.00003268   -0.00013337   -0.00001073
     atom   64 type  1   force =     0.00000479    0.00001287    0.00002928
     atom   65 type  1   force =     0.00002730    0.00012519   -0.00003506
     atom   66 type  1   force =     0.00007107    0.00008544   -0.00012278
     atom   67 type  1   force =     0.00006782   -0.00001611   -0.00037842
     atom   68 type  1   force =     0.00003521   -0.00006024   -0.00013521
     atom   69 type  1   force =     0.00002251    0.00009862   -0.00004167
     atom   70 type  1   force =    -0.00003600   -0.00006659    0.00022252
     atom   71 type  1   force =    -0.00004386   -0.00001283   -0.00008068
     atom   72 type  1   force =    -0.00003372   -0.00012477   -0.00005969
     atom   73 type  1   force =     0.00002186    0.00011353   -0.00007744
     atom   74 type  1   force =    -0.00001255   -0.00017767    0.00005462
     atom   75 type  1   force =     0.00001292    0.00010098    0.00002514
     atom   76 type  1   force =     0.00001686    0.00011142    0.00018661

     Total force =     0.001693     Total SCF correction =     0.000005
     Energy error            =      8.9E-06 Ry
     Gradient error          =      3.8E-04 Ry/Bohr

     bfgs converged in   5 scf cycles and   4 bfgs steps
     (criteria: energy <  1.0E-05 Ry, force <  3.9E-04 Ry/Bohr)

     End of BFGS Geometry Optimization

     Final energy             =   -1142.8645056364 Ry

     File ./pwscf.bfgs deleted, as requested
Begin final coordinates

ATOMIC_POSITIONS (angstrom)
Li              -0.0016772003       -0.5878801664       22.1495790630
Li               2.4301072562        7.3562349547        8.1163796292
Li               2.4296395290        3.7774014279        9.0108795660
Li               2.4303651629        0.6901587615       10.0513979919
Li               4.8610986265        7.8947641148       10.2883449661
Li               4.8643280821        4.2449754707       11.0503622058
Li               4.8663462484        1.1168362775       11.9708835992
Li               2.4400003531        8.3758639621       12.6910733146
Li               2.4371762213        5.0582109180       13.6179526490
Li               2.4333468070        1.6082704057       14.4795909504
Li               4.8557403104        8.8759684055       15.1983863817
Li               4.8518190675        5.5882345470       15.9371909634
Li               4.8488904375        2.2915031143       16.9127108227
Li               2.4180171411        9.5443889580       17.4269733223
Li               2.4209836374        6.0818480521       18.0996902686
Li               2.4240714242        2.8190299306       19.1689262538
Li               4.8561326593        9.9495895597       19.9974997738
Li               4.8575779866        7.0076461016       21.0266810491
Li               4.8573792634        3.3211697974       21.4647018518
Li               2.4309352796        9.5543669025        9.9494949908
Li               2.4339733771        6.0970640290       10.7780716413
Li               2.4370614789        2.8342498399       11.8473066672
Li               4.8690520678        9.9595727117       12.5200230686
Li               4.8671982254        6.6245879838       13.0342873347
Li               4.8642709489        3.3278576441       14.0098025258
Li               4.8603470304        0.0401273193       14.7486062861
Li               2.4246962228        7.3078216909       15.4674058673
Li               2.4208687765        3.8578829031       16.3290489082
Li               2.4180445495        0.5402320277       17.2559217211
Li               4.8497443989        7.7992607950       17.9761091672
Li               4.8517619644        4.6711222834       18.8966313764
Li               4.8549882187        1.0213287489       19.6586521539
Li               2.4276782301        8.2259381845       19.8955985541
Li               2.4284019284        5.1386924694       20.9361228349
Li               2.4279345460        1.5598589215       21.8306181014
Li               4.8597216775        9.5039765703        7.7974211465
Li               4.8587084495        5.5949252937        8.4822884798
Li               4.8585101416        1.9084503665        8.9203156785
Li               4.8563685244       -0.5878769990       22.1495822081
Li               7.2881518299        7.3562366147        8.1163788206
Li               7.2876887947        3.7774029820        9.0108763845
Li               7.2884100200        0.6901590681       10.0513985915
Li               9.7191434043        7.8947623971       10.2883459398
Li               9.7223721062        4.2449723469       11.0503645322
Li               9.7243907355        1.1168347590       11.9708836629
Li               7.2980448616        8.3758627531       12.6910726693
Li               7.2952203431        5.0582100967       13.6179513850
Li               7.2913952742        1.6082705723       14.4795921937
Li               9.7137864173        8.8759674548       15.1983891382
Li               9.7098636426        5.5882340661       15.9371923528
Li               9.7069374969        2.2915035006       16.9127094202
Li               7.2760585937        9.5443884645       17.4269756353
Li               7.2790296191        6.0818416443       18.0996919780
Li               7.2821146457        2.8190265704       19.1689268249
Li               9.7141750721        9.9495952150       19.9975002859
Li               9.7156234399        7.0076456110       21.0266812626
Li               9.7154239473        3.3211678856       21.4647068477
Li               7.2889795987        9.5543669838        9.9494952526
Li               7.2920138909        6.0970666883       10.7780707832
Li               7.2951053697        2.8342506472       11.8473044042
Li               9.7270976842        9.9595733453       12.5200254479
Li               9.7252434739        6.6245910600       13.0342891713
Li               9.7223150653        3.3278580291       14.0098042615
Li               9.7183903668        0.0401249701       14.7486080087
Li               7.2827411883        7.3078239179       15.4674058872
Li               7.2789112650        3.8578786004       16.3290489062
Li               7.2760893519        0.5402317482       17.2559237777
Li               9.7077882215        7.7992610757       17.9761105987
Li               9.7098054388        4.6711191774       18.8966330661
Li               9.7130325817        1.0213302125       19.6586518288
Li               7.2857239052        8.2259350323       19.8956020034
Li               7.2864465381        5.1386920294       20.9361218065
Li               7.2859808531        1.5598576428       21.8306168072
Li               9.7177631187        9.5039735719        7.7974173266
Li               9.7167540636        5.5949264142        8.4822874721
Li               9.7165534703        1.9084463723        8.9203179703
End final coordinates

     Message from routine punch:
     Nothing written, as per user request (disk_io='none')

     General routines

     Parallel routines

   This run was terminated on:   0:53:48  23Jan2025

   JOB DONE.