     Program PWSCF v.7.4 starts on  2Jan2025 at 10:45:29

     Reading input from espresso.pwi
Warning: card &CELL ignored
Warning: card    PRESS_CONV_THR   = 0.1 ignored
Warning: card    CELL_DOFREE      = 'ALL' ignored
Warning: card / ignored
Warning: card &FCP ignored
Warning: card / ignored
Warning: card &RISM ignored
Warning: card / ignored

     Current dimensions of program PWSCF are:
     Max number of different atomic species (ntypx) = 10
     Max number of k-points (npk) =  40000
     Max angular momentum in pseudopotentials (lmaxx) =  4

     IMPORTANT: XC functional enforced from input :
     Exchange-correlation= PBE
                           (   1   4   3   4   0   0   0)
     Any further DFT definition will be discarded
     Please, verify this is what you really want

     Reading input from environ.in:
     * using ionic solvent mode
     * setting boundary derivatives method to SSCS default
     * setting electrolyte-boundary derivatives method to SSCS default

Environ Warning (1001): card EOF ignored

     K-points division:     npool     =       2
     R & G space division:  proc/nbgrp/npool/nimage =     256
     Subspace diagonalization in iterative solution of the eigenvalue problem:
     a serial algorithm will be used

     Using Slab Decomposition

     bravais-lattice index     =           12
     lattice parameter (alat)  =      11.2436  a.u.
     unit-cell volume          =   15431.5264 (a.u.)^3
     number of atoms/cell      =           28
     number of atomic types    =            1
     number of electrons       =        84.00
     number of Kohn-Sham states=           63
     kinetic-energy cutoff     =      80.0000  Ry
     charge density cutoff     =     800.0000  Ry
     scf convergence threshold =      1.0E-06
     mixing beta               =       0.2000
     number of iterations used =            8  local-TF  mixing
     energy convergence thresh.=      1.0E-05
     force convergence thresh. =      3.9E-04
     Exchange-correlation= PBE
                           (   1   4   3   4   0   0   0)
     nstep                     =          999

                                  Environ Setup Summary

          O. Andreussi, I. Dabo and N. Marzari, J. Chem. Phys. 136, 064102 (2012)
          F. Nattino, M. Truscott, N. Marzari, and O. Andreussi, J. Chem. Phys. 150, 041722 (2019)

     in publications or presentations arising from this work.

     Parameters

     compensation onset threshold      =               0.1000E+00
     static permittivity               =                    89.90
     surface tension in input (dyn/cm) =                    37.30
     surface tension in internal units =               0.4792E-04

     Solvent Boundary

     solvent mode                      =                    ionic
     derivatives method                =                   lowmem
     electrolyte derivatives method    =                   lowmem
     numerical core for derivatives    =                      fft
     switching function adopted        =                     SCCS
     density limit for vacuum region   =               0.5000E-02
     density limit for bulk solvent    =               0.1000E-03
     soft-sphere radius mode           =                    bondi
     soft-sphere softness              =                     0.50
     alpha                             =                     1.32

     Electrostatic Setup

     electrostatic problem to solve    =                    modpb
     numerical solver adopted          =                   newton
     type of auxiliary density adopted =                     none
     numerical core for poisson        =                      fft
     adopting a nested solver scheme
     inner solver                      =                       cg
     inner core                        =                      fft
     type of pbc corrections           =                parabolic
     numerical core for corrections    =                      1da

     >>>>> Grand-Canonical SCF is activated <<<<<
     Initial Total Charge  =     0.000000 e
     Target Fermi Energy   =    -2.904000 eV
     Thr. of Fermi Energy  =     0.001000 eV
     Wave-shift of Kerker  =     0.400000 bohr^-1
     Wave-shift of Hartree =     1.500000 bohr^-1
     Mixing Rate of Fermi  =     0.050000

     celldm(1)=  11.243615  celldm(2)=   1.258306  celldm(3)=   8.704589
     celldm(4)=  -0.132454  celldm(5)=   0.000000  celldm(6)=   0.000000

     crystal axes: (cart. coord. in units of alat)
               a(1) = (   1.000000   0.000000   0.000000 )
               a(2) = (  -0.166667   1.247219   0.000000 )
               a(3) = (   0.000000   0.000000   8.704589 )

     reciprocal axes: (cart. coord. in units 2 pi/alat)
               b(1) = (  1.000000  0.133631 -0.000000 )
               b(2) = (  0.000000  0.801784  0.000000 )
               b(3) = (  0.000000 -0.000000  0.114882 )

     PseudoPot. # 1 for Li read from file:
     /work/e89/e89/ba3g18/Repos/Pseudopotentials/Pslibrary/Li.pbe-sl-kjpaw_psl.1.0.0.UPF
     MD5 check sum: 3f4d2cafebb47c6c3aa8ed472e6f074d
     Pseudo is Projector augmented-wave, Zval =  3.0
     Generated using 'atomic' code by A. Dal Corso  v.7.4
     Shape of augmentation charge: PSQ
     Using radial grid of 1017 points,  4 beta functions with:
                l(1) =   0
                l(2) =   0
                l(3) =   1
                l(4) =   1
     Q(r) pseudized with 0 coefficients

     atomic species   valence    mass     pseudopotential
     Li                3.00     6.94000     Li( 1.00)

     No symmetry found

                                    s                        frac. trans.

      isym =  1     identity

 cryst.   s( 1) = (     1          0          0      )
                  (     0          1          0      )
                  (     0          0          1      )

 cart.    s( 1) = (  1.0000000  0.0000000  0.0000000 )
                  (  0.0000000  1.0000000  0.0000000 )
                  (  0.0000000  0.0000000  1.0000000 )

     point group C_1 (1)
     there are  1 classes
     the character table:

       E
A      1.00

     the symmetry operations in each class and the name of the first element:

     E        1
          identity

   Cartesian axes

     site n.     atom                  positions (alat units)
         1        Li     tau(   1) = (   0.0461527  -0.0421070   5.3576242  )
         2        Li     tau(   2) = (  -0.0461472   0.8438920   3.3469648  )
         3        Li     tau(   3) = (   0.1277859   0.3571317   3.4916267  )
         4        Li     tau(   4) = (   0.1714210   1.1680815   3.6818215  )
         5        Li     tau(   5) = (   0.3011134   0.7103495   3.7856439  )
         6        Li     tau(   6) = (  -0.0004688   0.2804061   3.9696468  )
         7        Li     tau(   7) = (  -0.0265281   1.0614705   4.1162921  )
         8        Li     tau(   8) = (   0.1802878   0.6323309   4.2748329  )
         9        Li     tau(   9) = (   0.3197151   0.1694517   4.4297579  )
        10        Li     tau(  10) = (   0.3598618   0.9875309   4.5882970  )
        11        Li     tau(  11) = (   0.0004703   0.5213766   4.7349417  )
        12        Li     tau(  12) = (   0.1988891   0.0914357   4.9189459  )
        13        Li     tau(  13) = (   0.1619093   0.8809203   5.0227667  )
        14        Li     tau(  14) = (   0.3722073   0.4446538   5.2129610  )
        15        Li     tau(  15) = (   0.5461557  -0.0421072   5.3576241  )
        16        Li     tau(  16) = (   0.4538311   0.8438919   3.3469661  )
        17        Li     tau(  17) = (   0.6277967   0.3571319   3.4916281  )
        18        Li     tau(  18) = (   0.6714235   1.1680850   3.6818235  )
        19        Li     tau(  19) = (   0.8011091   0.7103467   3.7856442  )
        20        Li     tau(  20) = (   0.4995343   0.2804081   3.9696482  )
        21        Li     tau(  21) = (   0.4734722   1.0614701   4.1162928  )
        22        Li     tau(  22) = (   0.6802878   0.6323300   4.2748311  )
        23        Li     tau(  23) = (   0.8197148   0.1694515   4.4297578  )
        24        Li     tau(  24) = (   0.8598625   0.9875305   4.5882978  )
        25        Li     tau(  25) = (   0.5004701   0.5213762   4.7349423  )
        26        Li     tau(  26) = (   0.6988872   0.0914355   4.9189457  )
        27        Li     tau(  27) = (   0.6619100   0.8809203   5.0227669  )
        28        Li     tau(  28) = (   0.8722090   0.4446539   5.2129617  )

   Crystallographic axes

     site n.     atom                  positions (cryst. coord.)
         1        Li     tau(   1) = (  0.0405259 -0.0337607  0.6154942  )
         2        Li     tau(   2) = (  0.0666228  0.6766189  0.3845058  )
         3        Li     tau(   3) = (  0.1755097  0.2863424  0.4011248  )
         4        Li     tau(   4) = (  0.3275128  0.9365488  0.4229748  )
         5        Li     tau(   5) = (  0.3960380  0.5695467  0.4349021  )
         6        Li     tau(   6) = (  0.0370021  0.2248251  0.4560407  )
         7        Li     tau(   7) = (  0.1153172  0.8510699  0.4728876  )
         8        Li     tau(   8) = (  0.2647867  0.5069927  0.4911011  )
         9        Li     tau(   9) = (  0.3423591  0.1358636  0.5088991  )
        10        Li     tau(  10) = (  0.4918264  0.7917863  0.5271124  )
        11        Li     tau(  11) = (  0.0701423  0.4180313  0.5439592  )
        12        Li     tau(  12) = (  0.2111077  0.0733117  0.5650980  )
        13        Li     tau(  13) = (  0.2796275  0.7063076  0.5770251  )
        14        Li     tau(  14) = (  0.4316268  0.3565162  0.5988750  )
        15        Li     tau(  15) = (  0.5405289 -0.0337609  0.6154942  )
        16        Li     tau(  16) = (  0.5666011  0.6766189  0.3845059  )
        17        Li     tau(  17) = (  0.6755206  0.2863426  0.4011250  )
        18        Li     tau(  18) = (  0.8275157  0.9365516  0.4229750  )
        19        Li     tau(  19) = (  0.8960334  0.5695445  0.4349021  )
        20        Li     tau(  20) = (  0.5370055  0.2248267  0.4560409  )
        21        Li     tau(  21) = (  0.6153174  0.8510695  0.4728877  )
        22        Li     tau(  22) = (  0.7647866  0.5069920  0.4911009  )
        23        Li     tau(  23) = (  0.8423588  0.1358635  0.5088991  )
        24        Li     tau(  24) = (  0.9918271  0.7917860  0.5271125  )
        25        Li     tau(  25) = (  0.5701421  0.4180310  0.5439593  )
        26        Li     tau(  26) = (  0.7111058  0.0733115  0.5650980  )
        27        Li     tau(  27) = (  0.7796282  0.7063076  0.5770252  )
        28        Li     tau(  28) = (  0.9316285  0.3565163  0.5988751  )

     number of k points=    50  Marzari-Vanderbilt smearing, width (Ry)=  0.0100
                       cart. coord. in units 2pi/alat
        k(    1) = (   0.0000000   0.0000000   0.0000000), wk =   0.0202020
        k(    2) = (   0.0000000   0.0890871   0.0000000), wk =   0.0404040
        k(    3) = (   0.0000000   0.1781742   0.0000000), wk =   0.0404040
        k(    4) = (   0.0000000   0.2672613   0.0000000), wk =   0.0404040
[...]
     atom   15 type  1   force =    -0.00000327    0.00024242   -0.00003096
     atom   16 type  1   force =    -0.00000384   -0.00023410    0.00014545
     atom   17 type  1   force =    -0.00010378    0.00027076    0.00010979
     atom   18 type  1   force =     0.00018882   -0.00006736   -0.00008388
     atom   19 type  1   force =    -0.00012769   -0.00001119   -0.00007402
     atom   20 type  1   force =    -0.00005499    0.00015100   -0.00018309
     atom   21 type  1   force =     0.00020805   -0.00007639    0.00029794
     atom   22 type  1   force =    -0.00000254    0.00002142    0.00004581
     atom   23 type  1   force =     0.00001819   -0.00002442   -0.00015326
     atom   24 type  1   force =    -0.00020162    0.00007149   -0.00038640
     atom   25 type  1   force =     0.00005817   -0.00015405    0.00013194
     atom   26 type  1   force =     0.00013720    0.00001109    0.00006727
     atom   27 type  1   force =    -0.00020206    0.00006416    0.00012768
     atom   28 type  1   force =     0.00009028   -0.00026555   -0.00001594
     The non-local contrib.  to forces
     atom    1 type  1   force =     0.00094460   -0.01025903    0.08712501
     atom    2 type  1   force =    -0.00092716    0.01022620   -0.08712192
     atom    3 type  1   force =     0.00027638   -0.01562289   -0.05555304
     atom    4 type  1   force =     0.00114603    0.00352567   -0.01012307
     atom    5 type  1   force =    -0.00015699   -0.00262255   -0.00052967
     atom    6 type  1   force =     0.00023589    0.00144341    0.00161505
     atom    7 type  1   force =    -0.00096303   -0.00096034    0.00156804
     atom    8 type  1   force =     0.00027642   -0.00040660   -0.00019554
     atom    9 type  1   force =    -0.00028415    0.00040272    0.00007839
     atom   10 type  1   force =     0.00094979    0.00092308   -0.00163336
     atom   11 type  1   force =    -0.00024913   -0.00141851   -0.00167067
     atom   12 type  1   force =     0.00015012    0.00261068    0.00052769
     atom   13 type  1   force =    -0.00114445   -0.00355065    0.01019926
     atom   14 type  1   force =    -0.00026114    0.01567374    0.05566690
     atom   15 type  1   force =     0.00094333   -0.01025910    0.08712524
     atom   16 type  1   force =    -0.00091933    0.01022555   -0.08712165
     atom   17 type  1   force =     0.00027357   -0.01562240   -0.05555401
     atom   18 type  1   force =     0.00114560    0.00352292   -0.01012448
     atom   19 type  1   force =    -0.00015642   -0.00262164   -0.00053035
     atom   20 type  1   force =     0.00023426    0.00144274    0.00161431
     atom   21 type  1   force =    -0.00096323   -0.00096030    0.00156784
     atom   22 type  1   force =     0.00027650   -0.00040642   -0.00019508
     atom   23 type  1   force =    -0.00028383    0.00040264    0.00007863
     atom   24 type  1   force =     0.00094933    0.00092316   -0.00163358
     atom   25 type  1   force =    -0.00024907   -0.00141821   -0.00167060
     atom   26 type  1   force =     0.00015022    0.00261074    0.00052757
     atom   27 type  1   force =    -0.00114460   -0.00355099    0.01019900
     atom   28 type  1   force =    -0.00026162    0.01567375    0.05566658
     The ionic contribution  to forces
     atom    1 type  1   force =    -0.00278951   -0.14904364   13.12971573
     atom    2 type  1   force =     0.00262741    0.14884678  -13.12759121
     atom    3 type  1   force =    -0.00148605   -0.27749597  -11.91859502
     atom    4 type  1   force =    -0.00243489    0.17416316   -9.62381333
     atom    5 type  1   force =     0.00050698   -0.04778746   -7.65068574
     atom    6 type  1   force =    -0.00079867    0.00283398   -5.26092740
     atom    7 type  1   force =     0.00512616    0.01420707   -3.28997337
     atom    8 type  1   force =    -0.00174457   -0.02740326   -1.05492896
     atom    9 type  1   force =     0.00186613    0.02755224    1.05248211
     atom   10 type  1   force =    -0.00505833   -0.01477710    3.28803647
     atom   11 type  1   force =     0.00086283   -0.00219165    5.26016647
     atom   12 type  1   force =    -0.00045269    0.04763779    7.64967418
     atom   13 type  1   force =     0.00235990   -0.17463053    9.62599515
     atom   14 type  1   force =     0.00141047    0.27809929   11.92044089
     atom   15 type  1   force =    -0.00280664   -0.14904495   13.12971990
     atom   16 type  1   force =     0.00274388    0.14884491  -13.12758675
     atom   17 type  1   force =    -0.00153846   -0.27748767  -11.91859564
     atom   18 type  1   force =    -0.00244508    0.17411783   -9.62381584
     atom   19 type  1   force =     0.00051226   -0.04776437   -7.65069504
     atom   20 type  1   force =    -0.00082690    0.00282412   -5.26093431
     atom   21 type  1   force =     0.00512400    0.01420783   -3.28996618
     atom   22 type  1   force =    -0.00174289   -0.02739821   -1.05493291
     atom   23 type  1   force =     0.00187239    0.02755015    1.05249336
     atom   24 type  1   force =    -0.00506364   -0.01477561    3.28803552
     atom   25 type  1   force =     0.00086410   -0.00218768    5.26017233
     atom   26 type  1   force =    -0.00044838    0.04763929    7.64968262
     atom   27 type  1   force =     0.00235753   -0.17463589    9.62599165
     atom   28 type  1   force =     0.00140267    0.27809954   11.92043533
     The local contribution  to forces
     atom    1 type  1   force =     0.00195570    0.14523747  -13.24061147
     atom    2 type  1   force =    -0.00182422   -0.14492231   13.23869244
     atom    3 type  1   force =     0.00103744    0.27874116   11.98393797
     atom    4 type  1   force =     0.00167120   -0.17356169    9.63293894
     atom    5 type  1   force =    -0.00049473    0.05143600    7.65956359
     atom    6 type  1   force =     0.00054452   -0.00563303    5.26188990
     atom    7 type  1   force =    -0.00401305   -0.01276832    3.29033249
     atom    8 type  1   force =     0.00151020    0.02804692    1.05623427
     atom    9 type  1   force =    -0.00160934   -0.02819385   -1.05374139
     atom   10 type  1   force =     0.00396506    0.01336854   -3.28838424
     atom   11 type  1   force =    -0.00059169    0.00496327   -5.26110019
     atom   12 type  1   force =     0.00045600   -0.05127356   -7.65852511
     atom   13 type  1   force =    -0.00160941    0.17407072   -9.63517049
     atom   14 type  1   force =    -0.00098622   -0.27946947  -11.98578934
     atom   15 type  1   force =     0.00197316    0.14523885  -13.24061580
     atom   16 type  1   force =    -0.00194181   -0.14491960   13.23868729
     atom   17 type  1   force =     0.00108880    0.27873223   11.98393933
     atom   18 type  1   force =     0.00168085   -0.17351568    9.63294206
     atom   19 type  1   force =    -0.00049922    0.05141282    7.65957292
     atom   20 type  1   force =     0.00057355   -0.00562315    5.26189706
     atom   21 type  1   force =    -0.00401069   -0.01276902    3.29032523
     atom   22 type  1   force =     0.00150846    0.02804186    1.05623833
     atom   23 type  1   force =    -0.00161572   -0.02819177   -1.05375290
     atom   24 type  1   force =     0.00397061    0.01336695   -3.28838334
     atom   25 type  1   force =    -0.00059306    0.00495917   -5.26110625
     atom   26 type  1   force =     0.00045203   -0.05127510   -7.65853358
     atom   27 type  1   force =    -0.00160695    0.17407618   -9.63516673
     atom   28 type  1   force =    -0.00097856   -0.27946972  -11.98578334
     The core correction contribution to forces
     atom    1 type  1   force =     0.00000000    0.00000000    0.00000000
     atom    2 type  1   force =     0.00000000    0.00000000    0.00000000
     atom    3 type  1   force =     0.00000000    0.00000000    0.00000000
     atom    4 type  1   force =     0.00000000    0.00000000    0.00000000
     atom    5 type  1   force =     0.00000000    0.00000000    0.00000000
     atom    6 type  1   force =     0.00000000    0.00000000    0.00000000
     atom    7 type  1   force =     0.00000000    0.00000000    0.00000000
     atom    8 type  1   force =     0.00000000    0.00000000    0.00000000
     atom    9 type  1   force =     0.00000000    0.00000000    0.00000000
     atom   10 type  1   force =     0.00000000    0.00000000    0.00000000
     atom   11 type  1   force =     0.00000000    0.00000000    0.00000000
     atom   12 type  1   force =     0.00000000    0.00000000    0.00000000
     atom   13 type  1   force =     0.00000000    0.00000000    0.00000000
     atom   14 type  1   force =     0.00000000    0.00000000    0.00000000
     atom   15 type  1   force =     0.00000000    0.00000000    0.00000000
     atom   16 type  1   force =     0.00000000    0.00000000    0.00000000
     atom   17 type  1   force =     0.00000000    0.00000000    0.00000000
     atom   18 type  1   force =     0.00000000    0.00000000    0.00000000
     atom   19 type  1   force =     0.00000000    0.00000000    0.00000000
     atom   20 type  1   force =     0.00000000    0.00000000    0.00000000
     atom   21 type  1   force =     0.00000000    0.00000000    0.00000000
     atom   22 type  1   force =     0.00000000    0.00000000    0.00000000
     atom   23 type  1   force =     0.00000000    0.00000000    0.00000000
     atom   24 type  1   force =     0.00000000    0.00000000    0.00000000
     atom   25 type  1   force =     0.00000000    0.00000000    0.00000000
     atom   26 type  1   force =     0.00000000    0.00000000    0.00000000
     atom   27 type  1   force =     0.00000000    0.00000000    0.00000000
     atom   28 type  1   force =     0.00000000    0.00000000    0.00000000
     The Hubbard contrib.    to forces
     atom    1 type  1   force =     0.00000000    0.00000000    0.00000000
     atom    2 type  1   force =     0.00000000    0.00000000    0.00000000
     atom    3 type  1   force =     0.00000000    0.00000000    0.00000000
     atom    4 type  1   force =     0.00000000    0.00000000    0.00000000
     atom    5 type  1   force =     0.00000000    0.00000000    0.00000000
     atom    6 type  1   force =     0.00000000    0.00000000    0.00000000
     atom    7 type  1   force =     0.00000000    0.00000000    0.00000000
     atom    8 type  1   force =     0.00000000    0.00000000    0.00000000
     atom    9 type  1   force =     0.00000000    0.00000000    0.00000000
     atom   10 type  1   force =     0.00000000    0.00000000    0.00000000
     atom   11 type  1   force =     0.00000000    0.00000000    0.00000000
     atom   12 type  1   force =     0.00000000    0.00000000    0.00000000
     atom   13 type  1   force =     0.00000000    0.00000000    0.00000000
     atom   14 type  1   force =     0.00000000    0.00000000    0.00000000
     atom   15 type  1   force =     0.00000000    0.00000000    0.00000000
     atom   16 type  1   force =     0.00000000    0.00000000    0.00000000
     atom   17 type  1   force =     0.00000000    0.00000000    0.00000000
     atom   18 type  1   force =     0.00000000    0.00000000    0.00000000
     atom   19 type  1   force =     0.00000000    0.00000000    0.00000000
     atom   20 type  1   force =     0.00000000    0.00000000    0.00000000
     atom   21 type  1   force =     0.00000000    0.00000000    0.00000000
     atom   22 type  1   force =     0.00000000    0.00000000    0.00000000
     atom   23 type  1   force =     0.00000000    0.00000000    0.00000000
     atom   24 type  1   force =     0.00000000    0.00000000    0.00000000
     atom   25 type  1   force =     0.00000000    0.00000000    0.00000000
     atom   26 type  1   force =     0.00000000    0.00000000    0.00000000
     atom   27 type  1   force =     0.00000000    0.00000000    0.00000000
     atom   28 type  1   force =     0.00000000    0.00000000    0.00000000
     The SCF correction term to forces
     atom    1 type  1   force =    -0.00000003   -0.00000078    0.00000006
     atom    2 type  1   force =    -0.00000003    0.00000075   -0.00000004
     atom    3 type  1   force =     0.00000005   -0.00000028   -0.00000054
     atom    4 type  1   force =    -0.00000014    0.00000010    0.00000425
     atom    5 type  1   force =     0.00000015   -0.00000025   -0.00000077
     atom    6 type  1   force =     0.00000003    0.00000010   -0.00000020
     atom    7 type  1   force =    -0.00000012    0.00000001   -0.00000038
     atom    8 type  1   force =     0.00000000   -0.00000009   -0.00000019
     atom    9 type  1   force =     0.00000001    0.00000013    0.00000031
     atom   10 type  1   force =     0.00000011   -0.00000005    0.00000050
     atom   11 type  1   force =    -0.00000003   -0.00000006    0.00000033
     atom   12 type  1   force =    -0.00000016    0.00000024    0.00000079
     atom   13 type  1   force =     0.00000018   -0.00000010   -0.00000410
     atom   14 type  1   force =    -0.00000005    0.00000035    0.00000074
     atom   15 type  1   force =    -0.00000004   -0.00000079    0.00000005
     atom   16 type  1   force =    -0.00000004    0.00000071   -0.00000011
     atom   17 type  1   force =     0.00000003   -0.00000027   -0.00000056
     atom   18 type  1   force =    -0.00000014    0.00000008    0.00000428
     atom   19 type  1   force =     0.00000016   -0.00000024   -0.00000074
     atom   20 type  1   force =     0.00000003    0.00000010   -0.00000021
     atom   21 type  1   force =    -0.00000011    0.00000000   -0.00000038
     atom   22 type  1   force =     0.00000000   -0.00000009   -0.00000020
     atom   23 type  1   force =     0.00000000    0.00000013    0.00000031
     atom   24 type  1   force =     0.00000011   -0.00000005    0.00000051
     atom   25 type  1   force =    -0.00000003   -0.00000007    0.00000033
     atom   26 type  1   force =    -0.00000016    0.00000024    0.00000079
     atom   27 type  1   force =     0.00000016   -0.00000010   -0.00000412
     atom   28 type  1   force =    -0.00000006    0.00000036    0.00000073

     Total force =     0.001363     Total SCF correction =     0.000009
     Energy error            =      3.8E-06 Ry
     Gradient error          =      3.9E-04 Ry/Bohr

     bfgs converged in  16 scf cycles and  15 bfgs steps
     (criteria: energy <  1.0E-05 Ry, force <  3.9E-04 Ry/Bohr)

     End of BFGS Geometry Optimization

     Final energy             =    -421.0230569751 Ry

     File ./Li/Lithium.bfgs deleted, as requested
Begin final coordinates

ATOMIC_POSITIONS (angstrom)
Li               0.2707248215       -0.2480378621       31.8251776843
Li              -0.2709925338        5.0190563439       19.9616705276
Li               0.7533934850        2.1191020027       20.7754632746
Li               1.0183154713        6.9731688330       21.8372417392
Li               1.7961702652        4.2207606483       22.5522467168
Li              -0.0044551464        1.6511058446       23.6321088295
Li              -0.1506907229        6.3221803248       24.4711096581
Li               1.0764784743        3.7677873699       25.4365006845
Li               1.8987009622        1.0025818161       26.3584744952
Li               2.1341242932        5.8691043493       27.3229493498
Li               0.0045834846        3.1193023680       28.1609818146
Li               1.1789286743        0.5497562490       29.2383782331
Li               0.9647650703        5.2180636357       29.9529167682
Li               2.2213370972        2.6511657478       31.0126771451
Li               3.2456676462       -0.2480460008       31.8251800736
Li               2.7038718574        5.0190493639       19.9616771668
Li               3.7283598039        2.1191056826       20.7754680308
Li               3.9932550116        6.9731887917       21.8372505460
Li               4.7710911670        4.2207553516       22.5522519951
Li               2.9704859505        1.6511105547       23.6321112554
Li               2.8242413567        6.3221796121       24.4711138445
Li               4.0514102991        3.7677847938       25.4364946893
Li               4.8736309008        1.0025830976       26.3584778775
Li               5.1090586675        5.8691036981       27.3229503032
Li               2.9795160879        3.1193003459       28.1609842288
Li               4.1538564354        0.5497568069       29.2383832765
Li               3.9396992503        5.2180673822       29.9529167803
Li               5.1962744946        2.6511698662       31.0126743903
End final coordinates

     Writing all to output data dir ./Li/Lithium.save/ :
     XML data file

     General routines

     Parallel routines

     PAW routines

     Environ routines

   This run was terminated on:  13:11: 0   2Jan2025

   JOB DONE.