     Program PWSCF v.7.4 starts on 12Jan2025 at  5:46:51
        Git branch: develop
        Last git commit: e877ff360aceba4b8d76ffc2fb1c70545fc5dd57
        Last git commit date: Sat Jan 4 12:56:15 2025 +0000
        Last git commit subject: Merge branch 'orthoU' into 'develop'

     Reading input from espresso.pwi
Warning: card &CELL ignored
Warning: card    PRESS_CONV_THR   = 0.1 ignored
Warning: card    CELL_DOFREE      = 'ALL' ignored
Warning: card / ignored
Warning: card &FCP ignored
Warning: card / ignored
Warning: card &RISM ignored
Warning: card / ignored

     Current dimensions of program PWSCF are:
     Max number of different atomic species (ntypx) = 10
     Max number of k-points (npk) =  40000
     Max angular momentum in pseudopotentials (lmaxx) =  4

     IMPORTANT: XC functional enforced from input :
     Exchange-correlation= PBE
                           (   1   4   3   4   0   0   0)
     Any further DFT definition will be discarded
     Please, verify this is what you really want

     Reading input from environ.in:
     * using ionic solvent mode
     * setting boundary derivatives method to SSCS default
     * setting electrolyte-boundary derivatives method to SSCS default

Environ Warning (1001): card EOF ignored

     K-points division:     npool     =       2
     R & G space division:  proc/nbgrp/npool/nimage =     220
     Subspace diagonalization in iterative solution of the eigenvalue problem:
     one sub-group per band group will be used

     Using Slab Decomposition

     bravais-lattice index     =           12
     lattice parameter (alat)  =      18.3607  a.u.
     unit-cell volume          =   35212.2554 (a.u.)^3
     number of atoms/cell      =           68
     number of atomic types    =            1
     number of electrons       =       204.00
     number of Kohn-Sham states=          153
     kinetic-energy cutoff     =      80.0000  Ry
     charge density cutoff     =     800.0000  Ry
     scf convergence threshold =      1.0E-14
     mixing beta               =       0.2000
     number of iterations used =            8  local-TF  mixing
     Exchange-correlation= PBE
                           (   1   4   3   4   0   0   0)

                                  Environ Setup Summary

          O. Andreussi, I. Dabo and N. Marzari, J. Chem. Phys. 136, 064102 (2012)
          F. Nattino, M. Truscott, N. Marzari, and O. Andreussi, J. Chem. Phys. 150, 041722 (2019)

     in publications or presentations arising from this work.

     Parameters

     compensation onset threshold      =               0.1000E+00
     static permittivity               =                    89.90
     surface tension in input (dyn/cm) =                    37.30
     surface tension in internal units =               0.4792E-04

     Solvent Boundary

     solvent mode                      =                    ionic
     derivatives method                =                   lowmem
     electrolyte derivatives method    =                   lowmem
     numerical core for derivatives    =                      fft
     switching function adopted        =                     SCCS
     density limit for vacuum region   =               0.5000E-02
     density limit for bulk solvent    =               0.1000E-03
     soft-sphere radius mode           =                    bondi
     soft-sphere softness              =                     0.50
     alpha                             =                     1.32

     Electrostatic Setup

     electrostatic problem to solve    =                    modpb
     numerical solver adopted          =                   newton
     type of auxiliary density adopted =                     none
     numerical core for poisson        =                      fft
     adopting a nested solver scheme
     inner solver                      =                       cg
     inner core                        =                      fft
     type of pbc corrections           =                parabolic
     numerical core for corrections    =                      1da

     >>>>> Grand-Canonical SCF is activated <<<<<
     Initial Total Charge  =     0.000000 e
     Target Fermi Energy   =    -4.404000 eV
     Thr. of Fermi Energy  =     0.001000 eV
     Wave-shift of Kerker  =     0.400000 bohr^-1
     Wave-shift of Hartree =     1.500000 bohr^-1
     Mixing Rate of Fermi  =     0.050000

     celldm(1)=  18.360747  celldm(2)=   1.060660  celldm(3)=   5.518976
     celldm(4)=  -0.235702  celldm(5)=   0.000000  celldm(6)=   0.000000

     crystal axes: (cart. coord. in units of alat)
               a(1) = (   1.000000   0.000000   0.000000 )
               a(2) = (  -0.250000   1.030776   0.000000 )
               a(3) = (   0.000000   0.000000   5.518976 )

     reciprocal axes: (cart. coord. in units 2 pi/alat)
               b(1) = (  1.000000  0.242536  0.000000 )
               b(2) = (  0.000000  0.970143  0.000000 )
               b(3) = (  0.000000  0.000000  0.181193 )

     PseudoPot. # 1 for Li read from file:
     /home/mmm1182/Repos/Pseudopotentials/pslibrary/Li.pbe-sl-kjpaw_psl.1.0.0.UPF
     MD5 check sum: f40bb4162937df3f7c561f1969c76545
     Pseudo is Projector augmented-wave, Zval =  3.0
     Generated using 'atomic' code by A. Dal Corso  v.7.3.1
     Shape of augmentation charge: PSQ
     Using radial grid of 1017 points,  4 beta functions with:
                l(1) =   0
                l(2) =   0
                l(3) =   1
                l(4) =   1
     Q(r) pseudized with 0 coefficients

     atomic species   valence    mass     pseudopotential
     Li                3.00     6.94000     Li( 1.00)

     No symmetry found

                                    s                        frac. trans.

      isym =  1     identity

 cryst.   s( 1) = (     1          0          0      )
                  (     0          1          0      )
                  (     0          0          1      )

 cart.    s( 1) = (  1.0000000  0.0000000  0.0000000 )
                  (  0.0000000  1.0000000  0.0000000 )
                  (  0.0000000  0.0000000  1.0000000 )

     point group C_1 (1)
     there are  1 classes
     the character table:

       E
A      1.00

     the symmetry operations in each class and the name of the first element:

     E        1
          identity

   Cartesian axes

     site n.     atom                  positions (alat units)
         1        Li     tau(   1) = (  -0.0001142   0.0774960   2.0112794  )
         2        Li     tau(   2) = (   0.0001827   0.5974003   3.4734171  )
         3        Li     tau(   3) = (   0.2501633   0.8027197   3.2688905  )
         4        Li     tau(   4) = (   0.2502478   0.2011898   3.2944862  )
         5        Li     tau(   5) = (   0.0001916   0.3668656   3.1771828  )
         6        Li     tau(   6) = (   0.2500515   0.5566172   2.9929444  )
         7        Li     tau(   7) = (   0.2499845   0.9076212   2.6526923  )
         8        Li     tau(   8) = (   0.0002039   0.9690241   3.1088236  )
         9        Li     tau(   9) = (   0.0000547   0.1237789   2.9087189  )
        10        Li     tau(  10) = (   0.2499499   0.3083519   2.7155646  )
        11        Li     tau(  11) = (  -0.0000917   0.4791902   2.5572250  )
        12        Li     tau(  12) = (   0.2498614   0.6647137   2.3670288  )
        13        Li     tau(  13) = (   0.0000406   0.7246636   2.8358101  )
        14        Li     tau(  14) = (   0.2498885   0.0487262   2.5066932  )
        15        Li     tau(  15) = (  -0.0002510   0.2344387   2.3107195  )
        16        Li     tau(  16) = (   0.2497872   0.3822641   2.0882831  )
        17        Li     tau(  17) = (  -0.0001933   0.8365824   2.2330041  )
        18        Li     tau(  18) = (   0.0002292   0.0686274   3.2083222  )
        19        Li     tau(  19) = (   0.0001450   0.6691863   3.1519840  )
        20        Li     tau(  20) = (   0.2500909   0.8548840   2.9615791  )
        21        Li     tau(  21) = (   0.2501110   0.2544903   3.0122778  )
        22        Li     tau(  22) = (   0.0000089   0.4264416   2.8660079  )
        23        Li     tau(  23) = (   0.2499610   0.6093796   2.6828114  )
        24        Li     tau(  24) = (   0.2498011   0.9670059   2.3418208  )
        25        Li     tau(  25) = (   0.0000472   1.0257892   2.8032336  )
        26        Li     tau(  26) = (  -0.0000645   0.1795762   2.6101205  )
        27        Li     tau(  27) = (   0.2497942   0.3649072   2.4101315  )
        28        Li     tau(  28) = (  -0.0001594   0.5311165   2.2502975  )
        29        Li     tau(  29) = (   0.2498614   0.7364388   2.0457780  )
        30        Li     tau(  30) = (  -0.0000504   0.7773748   2.5259114  )
        31        Li     tau(  31) = (   0.2497541   0.1018265   2.2246421  )
        32        Li     tau(  32) = (   0.0002529   0.2257523   3.5078419  )
        33        Li     tau(  33) = (   0.2501961   0.4971917   3.2861434  )
        34        Li     tau(  34) = (   0.0002037   0.9515874   3.4310076  )
        35        Li     tau(  35) = (   0.4996878   0.0774959   2.0112771  )
        36        Li     tau(  36) = (   0.5002232   0.5973901   3.4734375  )
        37        Li     tau(  37) = (   0.7501679   0.8027216   3.2688879  )
        38        Li     tau(  38) = (   0.7502473   0.2012051   3.2945278  )
        39        Li     tau(  39) = (   0.5001814   0.3668677   3.1771744  )
        40        Li     tau(  40) = (   0.7500457   0.5566162   2.9929182  )
        41        Li     tau(  41) = (   0.7500028   0.9076197   2.6526973  )
        42        Li     tau(  42) = (   0.5002047   0.9690308   3.1088107  )
        43        Li     tau(  43) = (   0.5000637   0.1237823   2.9087122  )
        44        Li     tau(  44) = (   0.7499525   0.3083550   2.7155677  )
        45        Li     tau(  45) = (   0.4999086   0.4791921   2.5572173  )
        46        Li     tau(  46) = (   0.7498468   0.6647062   2.3670130  )
        47        Li     tau(  47) = (   0.5000461   0.7246625   2.8358419  )
        48        Li     tau(  48) = (   0.7498849   0.0487376   2.5066149  )
        49        Li     tau(  49) = (   0.4997836   0.2344328   2.3107230  )
        50        Li     tau(  50) = (   0.7497939   0.3822956   2.0882589  )
        51        Li     tau(  51) = (   0.4998075   0.8365442   2.2331165  )
        52        Li     tau(  52) = (   0.5002381   0.0686270   3.2083139  )
        53        Li     tau(  53) = (   0.5001470   0.6691914   3.1520014  )
        54        Li     tau(  54) = (   0.7500938   0.8548829   2.9615837  )
        55        Li     tau(  55) = (   0.7501103   0.2544921   3.0122987  )
        56        Li     tau(  56) = (   0.5000034   0.4264427   2.8659990  )
        57        Li     tau(  57) = (   0.7499555   0.6093767   2.6827951  )
        58        Li     tau(  58) = (   0.7498244   0.9670078   2.3418216  )
        59        Li     tau(  59) = (   0.5000463   1.0257900   2.8031935  )
        60        Li     tau(  60) = (   0.4999413   0.1795814   2.6101200  )
        61        Li     tau(  61) = (   0.7497960   0.3649044   2.4101160  )
[...]
     atom   58 type  1   force =     0.00000153    0.14139558    9.20958411
     atom   59 type  1   force =     0.00012062    0.07936265   -0.96590949
     atom   60 type  1   force =     0.00012448   -0.01733123    3.28136293
     atom   61 type  1   force =    -0.00043141   -0.15738276    7.70256777
     atom   62 type  1   force =     0.00018630   -0.02958471   11.44903438
     atom   63 type  1   force =    -0.00009183    0.12412564   14.29418982
     atom   64 type  1   force =     0.00017945    0.07417647    5.12461087
     atom   65 type  1   force =    -0.00016771    0.05564692   11.87109719
     atom   66 type  1   force =    -0.00026494   -0.00796840  -14.52888104
     atom   67 type  1   force =    -0.00007030   -0.13521402  -11.75281863
     atom   68 type  1   force =     0.00016442    0.20877517  -14.00324190
     The core correction contribution to forces
     atom    1 type  1   force =     0.00000000    0.00000000    0.00000000
     atom    2 type  1   force =     0.00000000    0.00000000    0.00000000
     atom    3 type  1   force =     0.00000000    0.00000000    0.00000000
     atom    4 type  1   force =     0.00000000    0.00000000    0.00000000
     atom    5 type  1   force =     0.00000000    0.00000000    0.00000000
     atom    6 type  1   force =     0.00000000    0.00000000    0.00000000
     atom    7 type  1   force =     0.00000000    0.00000000    0.00000000
     atom    8 type  1   force =     0.00000000    0.00000000    0.00000000
     atom    9 type  1   force =     0.00000000    0.00000000    0.00000000
     atom   10 type  1   force =     0.00000000    0.00000000    0.00000000
     atom   11 type  1   force =     0.00000000    0.00000000    0.00000000
     atom   12 type  1   force =     0.00000000    0.00000000    0.00000000
     atom   13 type  1   force =     0.00000000    0.00000000    0.00000000
     atom   14 type  1   force =     0.00000000    0.00000000    0.00000000
     atom   15 type  1   force =     0.00000000    0.00000000    0.00000000
     atom   16 type  1   force =     0.00000000    0.00000000    0.00000000
     atom   17 type  1   force =     0.00000000    0.00000000    0.00000000
     atom   18 type  1   force =     0.00000000    0.00000000    0.00000000
     atom   19 type  1   force =     0.00000000    0.00000000    0.00000000
     atom   20 type  1   force =     0.00000000    0.00000000    0.00000000
     atom   21 type  1   force =     0.00000000    0.00000000    0.00000000
     atom   22 type  1   force =     0.00000000    0.00000000    0.00000000
     atom   23 type  1   force =     0.00000000    0.00000000    0.00000000
     atom   24 type  1   force =     0.00000000    0.00000000    0.00000000
     atom   25 type  1   force =     0.00000000    0.00000000    0.00000000
     atom   26 type  1   force =     0.00000000    0.00000000    0.00000000
     atom   27 type  1   force =     0.00000000    0.00000000    0.00000000
     atom   28 type  1   force =     0.00000000    0.00000000    0.00000000
     atom   29 type  1   force =     0.00000000    0.00000000    0.00000000
     atom   30 type  1   force =     0.00000000    0.00000000    0.00000000
     atom   31 type  1   force =     0.00000000    0.00000000    0.00000000
     atom   32 type  1   force =     0.00000000    0.00000000    0.00000000
     atom   33 type  1   force =     0.00000000    0.00000000    0.00000000
     atom   34 type  1   force =     0.00000000    0.00000000    0.00000000
     atom   35 type  1   force =     0.00000000    0.00000000    0.00000000
     atom   36 type  1   force =     0.00000000    0.00000000    0.00000000
     atom   37 type  1   force =     0.00000000    0.00000000    0.00000000
     atom   38 type  1   force =     0.00000000    0.00000000    0.00000000
     atom   39 type  1   force =     0.00000000    0.00000000    0.00000000
     atom   40 type  1   force =     0.00000000    0.00000000    0.00000000
     atom   41 type  1   force =     0.00000000    0.00000000    0.00000000
     atom   42 type  1   force =     0.00000000    0.00000000    0.00000000
     atom   43 type  1   force =     0.00000000    0.00000000    0.00000000
     atom   44 type  1   force =     0.00000000    0.00000000    0.00000000
     atom   45 type  1   force =     0.00000000    0.00000000    0.00000000
     atom   46 type  1   force =     0.00000000    0.00000000    0.00000000
     atom   47 type  1   force =     0.00000000    0.00000000    0.00000000
     atom   48 type  1   force =     0.00000000    0.00000000    0.00000000
     atom   49 type  1   force =     0.00000000    0.00000000    0.00000000
     atom   50 type  1   force =     0.00000000    0.00000000    0.00000000
     atom   51 type  1   force =     0.00000000    0.00000000    0.00000000
     atom   52 type  1   force =     0.00000000    0.00000000    0.00000000
     atom   53 type  1   force =     0.00000000    0.00000000    0.00000000
     atom   54 type  1   force =     0.00000000    0.00000000    0.00000000
     atom   55 type  1   force =     0.00000000    0.00000000    0.00000000
     atom   56 type  1   force =     0.00000000    0.00000000    0.00000000
     atom   57 type  1   force =     0.00000000    0.00000000    0.00000000
     atom   58 type  1   force =     0.00000000    0.00000000    0.00000000
     atom   59 type  1   force =     0.00000000    0.00000000    0.00000000
     atom   60 type  1   force =     0.00000000    0.00000000    0.00000000
     atom   61 type  1   force =     0.00000000    0.00000000    0.00000000
     atom   62 type  1   force =     0.00000000    0.00000000    0.00000000
     atom   63 type  1   force =     0.00000000    0.00000000    0.00000000
     atom   64 type  1   force =     0.00000000    0.00000000    0.00000000
     atom   65 type  1   force =     0.00000000    0.00000000    0.00000000
     atom   66 type  1   force =     0.00000000    0.00000000    0.00000000
     atom   67 type  1   force =     0.00000000    0.00000000    0.00000000
     atom   68 type  1   force =     0.00000000    0.00000000    0.00000000
     The Hubbard contrib.    to forces
     atom    1 type  1   force =     0.00000000    0.00000000    0.00000000
     atom    2 type  1   force =     0.00000000    0.00000000    0.00000000
     atom    3 type  1   force =     0.00000000    0.00000000    0.00000000
     atom    4 type  1   force =     0.00000000    0.00000000    0.00000000
     atom    5 type  1   force =     0.00000000    0.00000000    0.00000000
     atom    6 type  1   force =     0.00000000    0.00000000    0.00000000
     atom    7 type  1   force =     0.00000000    0.00000000    0.00000000
     atom    8 type  1   force =     0.00000000    0.00000000    0.00000000
     atom    9 type  1   force =     0.00000000    0.00000000    0.00000000
     atom   10 type  1   force =     0.00000000    0.00000000    0.00000000
     atom   11 type  1   force =     0.00000000    0.00000000    0.00000000
     atom   12 type  1   force =     0.00000000    0.00000000    0.00000000
     atom   13 type  1   force =     0.00000000    0.00000000    0.00000000
     atom   14 type  1   force =     0.00000000    0.00000000    0.00000000
     atom   15 type  1   force =     0.00000000    0.00000000    0.00000000
     atom   16 type  1   force =     0.00000000    0.00000000    0.00000000
     atom   17 type  1   force =     0.00000000    0.00000000    0.00000000
     atom   18 type  1   force =     0.00000000    0.00000000    0.00000000
     atom   19 type  1   force =     0.00000000    0.00000000    0.00000000
     atom   20 type  1   force =     0.00000000    0.00000000    0.00000000
     atom   21 type  1   force =     0.00000000    0.00000000    0.00000000
     atom   22 type  1   force =     0.00000000    0.00000000    0.00000000
     atom   23 type  1   force =     0.00000000    0.00000000    0.00000000
     atom   24 type  1   force =     0.00000000    0.00000000    0.00000000
     atom   25 type  1   force =     0.00000000    0.00000000    0.00000000
     atom   26 type  1   force =     0.00000000    0.00000000    0.00000000
     atom   27 type  1   force =     0.00000000    0.00000000    0.00000000
     atom   28 type  1   force =     0.00000000    0.00000000    0.00000000
     atom   29 type  1   force =     0.00000000    0.00000000    0.00000000
     atom   30 type  1   force =     0.00000000    0.00000000    0.00000000
     atom   31 type  1   force =     0.00000000    0.00000000    0.00000000
     atom   32 type  1   force =     0.00000000    0.00000000    0.00000000
     atom   33 type  1   force =     0.00000000    0.00000000    0.00000000
     atom   34 type  1   force =     0.00000000    0.00000000    0.00000000
     atom   35 type  1   force =     0.00000000    0.00000000    0.00000000
     atom   36 type  1   force =     0.00000000    0.00000000    0.00000000
     atom   37 type  1   force =     0.00000000    0.00000000    0.00000000
     atom   38 type  1   force =     0.00000000    0.00000000    0.00000000
     atom   39 type  1   force =     0.00000000    0.00000000    0.00000000
     atom   40 type  1   force =     0.00000000    0.00000000    0.00000000
     atom   41 type  1   force =     0.00000000    0.00000000    0.00000000
     atom   42 type  1   force =     0.00000000    0.00000000    0.00000000
     atom   43 type  1   force =     0.00000000    0.00000000    0.00000000
     atom   44 type  1   force =     0.00000000    0.00000000    0.00000000
     atom   45 type  1   force =     0.00000000    0.00000000    0.00000000
     atom   46 type  1   force =     0.00000000    0.00000000    0.00000000
     atom   47 type  1   force =     0.00000000    0.00000000    0.00000000
     atom   48 type  1   force =     0.00000000    0.00000000    0.00000000
     atom   49 type  1   force =     0.00000000    0.00000000    0.00000000
     atom   50 type  1   force =     0.00000000    0.00000000    0.00000000
     atom   51 type  1   force =     0.00000000    0.00000000    0.00000000
     atom   52 type  1   force =     0.00000000    0.00000000    0.00000000
     atom   53 type  1   force =     0.00000000    0.00000000    0.00000000
     atom   54 type  1   force =     0.00000000    0.00000000    0.00000000
     atom   55 type  1   force =     0.00000000    0.00000000    0.00000000
     atom   56 type  1   force =     0.00000000    0.00000000    0.00000000
     atom   57 type  1   force =     0.00000000    0.00000000    0.00000000
     atom   58 type  1   force =     0.00000000    0.00000000    0.00000000
     atom   59 type  1   force =     0.00000000    0.00000000    0.00000000
     atom   60 type  1   force =     0.00000000    0.00000000    0.00000000
     atom   61 type  1   force =     0.00000000    0.00000000    0.00000000
     atom   62 type  1   force =     0.00000000    0.00000000    0.00000000
     atom   63 type  1   force =     0.00000000    0.00000000    0.00000000
     atom   64 type  1   force =     0.00000000    0.00000000    0.00000000
     atom   65 type  1   force =     0.00000000    0.00000000    0.00000000
     atom   66 type  1   force =     0.00000000    0.00000000    0.00000000
     atom   67 type  1   force =     0.00000000    0.00000000    0.00000000
     atom   68 type  1   force =     0.00000000    0.00000000    0.00000000
     The SCF correction term to forces
     atom    1 type  1   force =     0.00000000   -0.00000001   -0.00000000
     atom    2 type  1   force =     0.00000000    0.00000000    0.00000002
     atom    3 type  1   force =    -0.00000000    0.00000000    0.00000003
     atom    4 type  1   force =     0.00000000    0.00000001    0.00000001
     atom    5 type  1   force =     0.00000000    0.00000000   -0.00000001
     atom    6 type  1   force =    -0.00000000   -0.00000002   -0.00000000
     atom    7 type  1   force =    -0.00000000    0.00000001   -0.00000003
     atom    8 type  1   force =    -0.00000000    0.00000001    0.00000001
     atom    9 type  1   force =     0.00000000    0.00000001   -0.00000001
     atom   10 type  1   force =    -0.00000000   -0.00000001   -0.00000001
     atom   11 type  1   force =    -0.00000000   -0.00000001   -0.00000002
     atom   12 type  1   force =     0.00000000    0.00000000    0.00000000
     atom   13 type  1   force =    -0.00000000   -0.00000001   -0.00000002
     atom   14 type  1   force =    -0.00000000    0.00000000   -0.00000000
     atom   15 type  1   force =     0.00000000    0.00000000    0.00000001
     atom   16 type  1   force =     0.00000000    0.00000002   -0.00000001
     atom   17 type  1   force =     0.00000000   -0.00000000   -0.00000002
     atom   18 type  1   force =     0.00000000    0.00000001   -0.00000001
     atom   19 type  1   force =    -0.00000000   -0.00000001   -0.00000001
     atom   20 type  1   force =     0.00000000    0.00000001   -0.00000000
     atom   21 type  1   force =    -0.00000000    0.00000000   -0.00000001
     atom   22 type  1   force =    -0.00000000   -0.00000001   -0.00000001
     atom   23 type  1   force =     0.00000000   -0.00000000   -0.00000002
     atom   24 type  1   force =    -0.00000000   -0.00000001    0.00000001
     atom   25 type  1   force =    -0.00000000    0.00000002   -0.00000002
     atom   26 type  1   force =     0.00000000   -0.00000000   -0.00000001
     atom   27 type  1   force =     0.00000000    0.00000000   -0.00000001
     atom   28 type  1   force =     0.00000000    0.00000001   -0.00000002
     atom   29 type  1   force =    -0.00000000   -0.00000000   -0.00000000
     atom   30 type  1   force =    -0.00000000    0.00000001   -0.00000002
     atom   31 type  1   force =     0.00000000   -0.00000001    0.00000000
     atom   32 type  1   force =     0.00000000    0.00000001    0.00000001
     atom   33 type  1   force =     0.00000000   -0.00000001    0.00000003
     atom   34 type  1   force =     0.00000000   -0.00000001    0.00000003
     atom   35 type  1   force =     0.00000000   -0.00000001   -0.00000001
     atom   36 type  1   force =    -0.00000000    0.00000000    0.00000002
     atom   37 type  1   force =    -0.00000000    0.00000000    0.00000003
     atom   38 type  1   force =    -0.00000000    0.00000001    0.00000001
     atom   39 type  1   force =    -0.00000000    0.00000000   -0.00000001
     atom   40 type  1   force =     0.00000000   -0.00000002   -0.00000000
     atom   41 type  1   force =     0.00000000    0.00000001   -0.00000003
     atom   42 type  1   force =    -0.00000000    0.00000001    0.00000001
     atom   43 type  1   force =    -0.00000000    0.00000001   -0.00000001
     atom   44 type  1   force =     0.00000000   -0.00000001   -0.00000001
     atom   45 type  1   force =    -0.00000000   -0.00000001   -0.00000002
     atom   46 type  1   force =     0.00000000    0.00000000    0.00000000
     atom   47 type  1   force =    -0.00000000   -0.00000001   -0.00000002
     atom   48 type  1   force =     0.00000000   -0.00000000   -0.00000000
     atom   49 type  1   force =    -0.00000000    0.00000000    0.00000002
     atom   50 type  1   force =    -0.00000000    0.00000002   -0.00000001
     atom   51 type  1   force =    -0.00000000   -0.00000000   -0.00000002
     atom   52 type  1   force =    -0.00000000    0.00000001   -0.00000001
     atom   53 type  1   force =     0.00000000   -0.00000001   -0.00000000
     atom   54 type  1   force =     0.00000000    0.00000001   -0.00000000
     atom   55 type  1   force =     0.00000000    0.00000001   -0.00000001
     atom   56 type  1   force =     0.00000000   -0.00000001   -0.00000001
     atom   57 type  1   force =     0.00000000   -0.00000000   -0.00000002
     atom   58 type  1   force =     0.00000000   -0.00000001    0.00000001
     atom   59 type  1   force =     0.00000000    0.00000002   -0.00000002
     atom   60 type  1   force =    -0.00000000   -0.00000000   -0.00000001
     atom   61 type  1   force =     0.00000000    0.00000000   -0.00000001
     atom   62 type  1   force =    -0.00000000    0.00000000   -0.00000002
     atom   63 type  1   force =     0.00000000   -0.00000000   -0.00000001
     atom   64 type  1   force =     0.00000000    0.00000001   -0.00000002
     atom   65 type  1   force =    -0.00000000   -0.00000001    0.00000001
     atom   66 type  1   force =     0.00000000    0.00000001    0.00000001
     atom   67 type  1   force =    -0.00000000   -0.00000001    0.00000003
     atom   68 type  1   force =    -0.00000000   -0.00000001    0.00000003

     Total force =     0.000943     Total SCF correction =     0.000000

     Writing all to output data dir ./Li/Lithium.save/ :
     XML data file

     General routines

     Parallel routines

     PAW routines

     Environ routines

   This run was terminated on:   7:18:53  12Jan2025

   JOB DONE.