     Program PWSCF v.7.4 starts on  5Jan2025 at  3:17: 2

     Reading input from espresso.pwi
Warning: card &CELL ignored
Warning: card    PRESS_CONV_THR   = 0.1 ignored
Warning: card    CELL_DOFREE      = 'ALL' ignored
Warning: card / ignored
Warning: card &FCP ignored
Warning: card / ignored
Warning: card &RISM ignored
Warning: card / ignored

     Current dimensions of program PWSCF are:
     Max number of different atomic species (ntypx) = 10
     Max number of k-points (npk) =  40000
     Max angular momentum in pseudopotentials (lmaxx) =  4

     IMPORTANT: XC functional enforced from input :
     Exchange-correlation= PBE
                           (   1   4   3   4   0   0   0)
     Any further DFT definition will be discarded
     Please, verify this is what you really want

     Reading input from environ.in:
     * using ionic solvent mode
     * setting boundary derivatives method to SSCS default
     * setting electrolyte-boundary derivatives method to SSCS default

Environ Warning (1001): card EOF ignored

     K-points division:     npool     =       2
     R & G space division:  proc/nbgrp/npool/nimage =     192
     Subspace diagonalization in iterative solution of the eigenvalue problem:
     a serial algorithm will be used

     Using Slab Decomposition

     bravais-lattice index     =            8
     lattice parameter (alat)  =      11.2436  a.u.
     unit-cell volume          =   18353.5537 (a.u.)^3
     number of atoms/cell      =           24
     number of atomic types    =            1
     number of electrons       =        72.00
     number of Kohn-Sham states=           54
     kinetic-energy cutoff     =      80.0000  Ry
     charge density cutoff     =     800.0000  Ry
     scf convergence threshold =      1.0E-06
     mixing beta               =       0.2000
     number of iterations used =            8  local-TF  mixing
     energy convergence thresh.=      1.0E-05
     force convergence thresh. =      3.9E-04
     Exchange-correlation= PBE
                           (   1   4   3   4   0   0   0)
     nstep                     =          999

                                  Environ Setup Summary

          O. Andreussi, I. Dabo and N. Marzari, J. Chem. Phys. 136, 064102 (2012)
          F. Nattino, M. Truscott, N. Marzari, and O. Andreussi, J. Chem. Phys. 150, 041722 (2019)

     in publications or presentations arising from this work.

     Parameters

     compensation onset threshold      =               0.1000E+00
     static permittivity               =                    89.90
     surface tension in input (dyn/cm) =                    37.30
     surface tension in internal units =               0.4792E-04

     Solvent Boundary

     solvent mode                      =                    ionic
     derivatives method                =                   lowmem
     electrolyte derivatives method    =                   lowmem
     numerical core for derivatives    =                      fft
     switching function adopted        =                     SCCS
     density limit for vacuum region   =               0.5000E-02
     density limit for bulk solvent    =               0.1000E-03
     soft-sphere radius mode           =                    bondi
     soft-sphere softness              =                     0.50
     alpha                             =                     1.32

     Electrostatic Setup

     electrostatic problem to solve    =                    modpb
     numerical solver adopted          =                   newton
     type of auxiliary density adopted =                     none
     numerical core for poisson        =                      fft
     adopting a nested solver scheme
     inner solver                      =                       cg
     inner core                        =                      fft
     type of pbc corrections           =                parabolic
     numerical core for corrections    =                      1da

     >>>>> Grand-Canonical SCF is activated <<<<<
     Initial Total Charge  =     0.000000 e
     Target Fermi Energy   =    -1.404000 eV
     Thr. of Fermi Energy  =     0.001000 eV
     Wave-shift of Kerker  =     0.400000 bohr^-1
     Wave-shift of Hartree =     1.500000 bohr^-1
     Mixing Rate of Fermi  =     0.050000

     celldm(1)=  11.243615  celldm(2)=   1.632993  celldm(3)=   7.907113
     celldm(4)=   0.000000  celldm(5)=   0.000000  celldm(6)=   0.000000

     crystal axes: (cart. coord. in units of alat)
               a(1) = (   1.000000   0.000000   0.000000 )
               a(2) = (   0.000000   1.632993   0.000000 )
               a(3) = (   0.000000   0.000000   7.907113 )

     reciprocal axes: (cart. coord. in units 2 pi/alat)
               b(1) = (  1.000000  0.000000  0.000000 )
               b(2) = (  0.000000  0.612372  0.000000 )
               b(3) = (  0.000000  0.000000  0.126468 )

     PseudoPot. # 1 for Li read from file:
     /work/e89/e89/ba3g18/Repos/Pseudopotentials/Pslibrary/Li.pbe-sl-kjpaw_psl.1.0.0.UPF
     MD5 check sum: 3f4d2cafebb47c6c3aa8ed472e6f074d
     Pseudo is Projector augmented-wave, Zval =  3.0
     Generated using 'atomic' code by A. Dal Corso  v.7.4
     Shape of augmentation charge: PSQ
     Using radial grid of 1017 points,  4 beta functions with:
                l(1) =   0
                l(2) =   0
                l(3) =   1
                l(4) =   1
     Q(r) pseudized with 0 coefficients

     atomic species   valence    mass     pseudopotential
     Li                3.00     6.94000     Li( 1.00)

      2 Sym. Ops. (no inversion) found

                                    s                        frac. trans.

      isym =  1     identity

 cryst.   s( 1) = (     1          0          0      )
                  (     0          1          0      )
                  (     0          0          1      )

 cart.    s( 1) = (  1.0000000  0.0000000  0.0000000 )
                  (  0.0000000  1.0000000  0.0000000 )
                  (  0.0000000  0.0000000  1.0000000 )

      isym =  2     inv. 180 deg rotation - cart. axis [0,1,0]

 cryst.   s( 2) = (     1          0          0      )
                  (     0         -1          0      )
                  (     0          0          1      )

 cart.    s( 2) = (  1.0000000  0.0000000  0.0000000 )
                  (  0.0000000 -1.0000000  0.0000000 )
                  (  0.0000000  0.0000000  1.0000000 )

     point group C_s (m)
     there are  2 classes
     the character table:

       E     s
A'     1.00  1.00
A''    1.00 -1.00

     the symmetry operations in each class and the name of the first element:

     E        1
          identity
     s        2
          inv. 180 deg rotation - cart. axis [0,1,0]

   Cartesian axes

     site n.     atom                  positions (alat units)
         1        Li     tau(   1) = (   0.4588978   0.8164966   4.4933523  )
         2        Li     tau(   2) = (   0.2074469   0.4078452   3.4136576  )
         3        Li     tau(   3) = (   0.4589735   0.8164966   3.5818257  )
         4        Li     tau(   4) = (   0.4598760   0.4079077   3.8658933  )
         5        Li     tau(   5) = (   0.2107534   0.8164966   4.0415828  )
         6        Li     tau(   6) = (   0.2066263   0.4082780   4.3244518  )
         7        Li     tau(   7) = (   0.4573649   1.6329931   4.4938236  )
         8        Li     tau(   8) = (   0.2074469   1.2251481   3.4136576  )
         9        Li     tau(   9) = (   0.4567660   1.6329931   3.5824184  )
        10        Li     tau(  10) = (   0.4598760   1.2250856   3.8658933  )
        11        Li     tau(  11) = (   0.2093648   1.6329931   4.0416392  )
        12        Li     tau(  12) = (   0.2066263   1.2247153   4.3244518  )
        13        Li     tau(  13) = (   0.9583340   0.8164966   4.4933295  )
        14        Li     tau(  14) = (   0.7075243   0.4078347   3.4136434  )
        15        Li     tau(  15) = (   0.9590311   0.8164966   3.5819065  )
        16        Li     tau(  16) = (   0.9599510   0.4080900   3.8658746  )
        17        Li     tau(  17) = (   0.7109853   0.8164966   4.0417840  )
        18        Li     tau(  18) = (   0.7066142   0.4085177   4.3244834  )
        19        Li     tau(  19) = (   0.9577346   1.6329931   4.4938316  )
        20        Li     tau(  20) = (   0.7075243   1.2251585   3.4136434  )
        21        Li     tau(  21) = (   0.9567151   1.6329931   3.5823034  )
        22        Li     tau(  22) = (   0.9599510   1.2249033   3.8658746  )
        23        Li     tau(  23) = (   0.7090025   1.6329931   4.0415130  )
        24        Li     tau(  24) = (   0.7066142   1.2244756   4.3244834  )

   Crystallographic axes

     site n.     atom                  positions (cryst. coord.)
         1        Li     tau(   1) = (  0.4588978  0.5000001  0.5682671  )
         2        Li     tau(   2) = (  0.2074469  0.2497532  0.4317199  )
         3        Li     tau(   3) = (  0.4589735  0.5000001  0.4529878  )
         4        Li     tau(   4) = (  0.4598760  0.2497915  0.4889134  )
         5        Li     tau(   5) = (  0.2107534  0.5000001  0.5111325  )
         6        Li     tau(   6) = (  0.2066263  0.2500182  0.5469065  )
         7        Li     tau(   7) = (  0.4573649  1.0000001  0.5683267  )
         8        Li     tau(   8) = (  0.2074469  0.7502470  0.4317199  )
         9        Li     tau(   9) = (  0.4567660  1.0000001  0.4530628  )
        10        Li     tau(  10) = (  0.4598760  0.7502087  0.4889134  )
        11        Li     tau(  11) = (  0.2093648  1.0000001  0.5111397  )
        12        Li     tau(  12) = (  0.2066263  0.7499820  0.5469065  )
        13        Li     tau(  13) = (  0.9583340  0.5000001  0.5682642  )
        14        Li     tau(  14) = (  0.7075243  0.2497468  0.4317180  )
        15        Li     tau(  15) = (  0.9590311  0.5000001  0.4529980  )
        16        Li     tau(  16) = (  0.9599510  0.2499031  0.4889110  )
        17        Li     tau(  17) = (  0.7109853  0.5000001  0.5111580  )
        18        Li     tau(  18) = (  0.7066142  0.2501650  0.5469105  )
        19        Li     tau(  19) = (  0.9577346  1.0000001  0.5683277  )
        20        Li     tau(  20) = (  0.7075243  0.7502534  0.4317180  )
        21        Li     tau(  21) = (  0.9567151  1.0000001  0.4530482  )
        22        Li     tau(  22) = (  0.9599510  0.7500971  0.4889110  )
        23        Li     tau(  23) = (  0.7090025  1.0000001  0.5111237  )
        24        Li     tau(  24) = (  0.7066142  0.7498352  0.5469105  )

     number of k points=    24  Marzari-Vanderbilt smearing, width (Ry)=  0.0100
                       cart. coord. in units 2pi/alat
        k(    1) = (   0.0000000   0.0000000   0.0000000), wk =   0.0259740
        k(    2) = (   0.0000000   0.0874818   0.0000000), wk =   0.0519481
        k(    3) = (   0.0000000   0.1749636   0.0000000), wk =   0.0519481
        k(    4) = (   0.0000000   0.2624454   0.0000000), wk =   0.0519481
        k(    5) = (   0.0909091   0.0000000   0.0000000), wk =   0.0519481
        k(    6) = (   0.0909091   0.0874818   0.0000000), wk =   0.1038961
[...]
     atom    8 type  1   force =     0.00000705   -0.00011259    0.09117135
     atom    9 type  1   force =    -0.00001020   -0.00000001    0.11240093
     atom   10 type  1   force =    -0.00000245    0.00000316    0.01922069
     atom   11 type  1   force =     0.00000544   -0.00000000   -0.01924755
     atom   12 type  1   force =     0.00000448    0.00000900   -0.11263002
     atom   13 type  1   force =    -0.00004313    0.00000007   -0.09129458
     atom   14 type  1   force =     0.00001720    0.00011159    0.09116778
     atom   15 type  1   force =    -0.00000309   -0.00000003    0.11267655
     atom   16 type  1   force =    -0.00000134   -0.00000088    0.01922630
     atom   17 type  1   force =     0.00000495    0.00000000   -0.01923123
     atom   18 type  1   force =     0.00000647    0.00006256   -0.11263104
     atom   19 type  1   force =     0.00002293    0.00000005   -0.09151645
     atom   20 type  1   force =     0.00001720   -0.00011146    0.09116781
     atom   21 type  1   force =    -0.00002078   -0.00000001    0.11241604
     atom   22 type  1   force =    -0.00000134    0.00000088    0.01922631
     atom   23 type  1   force =    -0.00000347   -0.00000000   -0.01920121
     atom   24 type  1   force =     0.00000647   -0.00006260   -0.11263102

     Forces acting on atoms (cartesian axes, Ry/au):

     atom    1 type  1   force =    -0.00012200    0.00000000    0.00005245
     atom    2 type  1   force =    -0.00003543    0.00005718    0.00004071
     atom    3 type  1   force =     0.00008390    0.00000000    0.00002750
     atom    4 type  1   force =     0.00005866    0.00018085    0.00001201
     atom    5 type  1   force =    -0.00003875    0.00000000    0.00001033
     atom    6 type  1   force =    -0.00002661    0.00021095   -0.00006284
     atom    7 type  1   force =     0.00021619    0.00000000    0.00019051
     atom    8 type  1   force =    -0.00003543   -0.00005718    0.00004071
     atom    9 type  1   force =     0.00006316    0.00000000   -0.00019914
     atom   10 type  1   force =     0.00005866   -0.00018085    0.00001201
     atom   11 type  1   force =    -0.00019143    0.00000000   -0.00006284
     atom   12 type  1   force =    -0.00002661   -0.00021095   -0.00006284
     atom   13 type  1   force =     0.00023149    0.00000000    0.00007645
     atom   14 type  1   force =    -0.00006200    0.00006674    0.00004436
     atom   15 type  1   force =     0.00004339    0.00000000   -0.00003441
     atom   16 type  1   force =     0.00003038    0.00006694    0.00002400
     atom   17 type  1   force =    -0.00019944    0.00000000   -0.00015710
     atom   18 type  1   force =    -0.00002914   -0.00000317   -0.00007119
     atom   19 type  1   force =    -0.00008893    0.00000000    0.00015849
     atom   20 type  1   force =    -0.00006200   -0.00006674    0.00004436
     atom   21 type  1   force =     0.00011149    0.00000000   -0.00012182
     atom   22 type  1   force =     0.00003038   -0.00006694    0.00002400
     atom   23 type  1   force =     0.00001919    0.00000000    0.00008549
     atom   24 type  1   force =    -0.00002914    0.00000317   -0.00007119
     The non-local contrib.  to forces
     atom    1 type  1   force =    -0.00030969    0.00000000    0.03723157
     atom    2 type  1   force =     0.00008674   -0.00002429   -0.03726711
     atom    3 type  1   force =    -0.00003108    0.00000000   -0.02287799
     atom    4 type  1   force =    -0.00001394    0.00028204    0.00502434
     atom    5 type  1   force =     0.00021015    0.00000000   -0.00504124
     atom    6 type  1   force =     0.00004228    0.00019509    0.02289231
     atom    7 type  1   force =     0.00008815    0.00000000    0.03739288
     atom    8 type  1   force =     0.00008674    0.00002429   -0.03726711
     atom    9 type  1   force =    -0.00012402    0.00000000   -0.02305586
     atom   10 type  1   force =    -0.00001394   -0.00028204    0.00502434
     atom   11 type  1   force =    -0.00003229    0.00000000   -0.00508587
     atom   12 type  1   force =     0.00004228   -0.00019509    0.02289231
     atom   13 type  1   force =     0.00012586    0.00000000    0.03726230
     atom   14 type  1   force =     0.00005817    0.00000560   -0.03726259
     atom   15 type  1   force =    -0.00010456    0.00000000   -0.02294425
     atom   16 type  1   force =    -0.00003876    0.00015742    0.00504284
     atom   17 type  1   force =     0.00004365    0.00000000   -0.00526316
     atom   18 type  1   force =     0.00004739   -0.00002809    0.02287745
     atom   19 type  1   force =    -0.00029686    0.00000000    0.03735576
     atom   20 type  1   force =     0.00005817   -0.00000560   -0.03726259
     atom   21 type  1   force =    -0.00005854    0.00000000   -0.02296470
     atom   22 type  1   force =    -0.00003876   -0.00015742    0.00504284
     atom   23 type  1   force =     0.00018108    0.00000000   -0.00489830
     atom   24 type  1   force =     0.00004739    0.00002809    0.02287745
     The ionic contribution  to forces
     atom    1 type  1   force =    -0.00305071   -0.00000002    8.25201217
     atom    2 type  1   force =    -0.00026506    0.00398499   -8.25700905
     atom    3 type  1   force =     0.00121170    0.00000002   -6.07263314
     atom    4 type  1   force =     0.00068160    0.00921796   -1.29314998
     atom    5 type  1   force =     0.00067148   -0.00000001    1.28968127
     atom    6 type  1   force =    -0.00038748    0.00736129    6.07392680
     atom    7 type  1   force =     0.00386193    0.00000004    8.25147860
     atom    8 type  1   force =    -0.00026507   -0.00398502   -8.25700897
     atom    9 type  1   force =     0.00030967    0.00000002   -6.06091021
     atom   10 type  1   force =     0.00068163   -0.00921800   -1.29314988
     atom   11 type  1   force =    -0.00294623    0.00000005    1.29283991
     atom   12 type  1   force =    -0.00038748   -0.00736132    6.07392700
     atom   13 type  1   force =     0.00424653   -0.00000002    8.25187763
     atom   14 type  1   force =    -0.00079280    0.00436600   -8.25698752
     atom   15 type  1   force =    -0.00000030    0.00000002   -6.07208719
     atom   16 type  1   force =     0.00013964    0.00694312   -1.29333325
     atom   17 type  1   force =    -0.00279810   -0.00000001    1.29075117
     atom   18 type  1   force =    -0.00027922    0.00284266    6.07399454
     atom   19 type  1   force =    -0.00248698    0.00000004    8.25178319
     atom   20 type  1   force =    -0.00079280   -0.00436603   -8.25698742
     atom   21 type  1   force =     0.00130586    0.00000001   -6.06161644
     atom   22 type  1   force =     0.00013967   -0.00694316   -1.29333317
     atom   23 type  1   force =     0.00148174    0.00000005    1.29193917
     atom   24 type  1   force =    -0.00027922   -0.00284269    6.07399474
     The local contribution  to forces
     atom    1 type  1   force =     0.00320240   -0.00004225   -8.19793805
     atom    2 type  1   force =     0.00013452   -0.00406127    8.20314878
     atom    3 type  1   force =    -0.00108365   -0.00004365    5.98284889
     atom    4 type  1   force =    -0.00061173   -0.00936039    1.26891797
     atom    5 type  1   force =    -0.00091788   -0.00004493   -1.26545158
     atom    6 type  1   force =     0.00031199   -0.00737942   -5.98424998
     atom    7 type  1   force =    -0.00369751   -0.00004365   -8.19711091
     atom    8 type  1   force =     0.00013684    0.00397094    8.20314515
     atom    9 type  1   force =    -0.00011223   -0.00004446    5.97136551
     atom   10 type  1   force =    -0.00060128    0.00927169    1.26891554
     atom   11 type  1   force =     0.00278183   -0.00004169   -1.26856913
     atom   12 type  1   force =     0.00031606    0.00729270   -5.98425484
     atom   13 type  1   force =    -0.00409812   -0.00004225   -8.19776996
     atom   14 type  1   force =     0.00065390   -0.00446152    8.20313024
     atom   15 type  1   force =     0.00015157   -0.00004365    5.98232027
     atom   16 type  1   force =    -0.00007428   -0.00707685    1.26908907
     atom   17 type  1   force =     0.00255023   -0.00004493   -1.26641339
     atom   18 type  1   force =     0.00019406   -0.00292295   -5.98431014
     atom   19 type  1   force =     0.00267235   -0.00004365   -8.19746601
     atom   20 type  1   force =     0.00065680    0.00437119    8.20312601
     atom   21 type  1   force =    -0.00111505   -0.00004446    5.97204245
     atom   22 type  1   force =    -0.00006383    0.00698815    1.26908664
     atom   23 type  1   force =    -0.00164041   -0.00004169   -1.26775407
     atom   24 type  1   force =     0.00019812    0.00283624   -5.98431501
     The core correction contribution to forces
     atom    1 type  1   force =     0.00000000    0.00000000    0.00000000
     atom    2 type  1   force =     0.00000000    0.00000000    0.00000000
     atom    3 type  1   force =     0.00000000    0.00000000    0.00000000
     atom    4 type  1   force =     0.00000000    0.00000000    0.00000000
     atom    5 type  1   force =     0.00000000    0.00000000    0.00000000
     atom    6 type  1   force =     0.00000000    0.00000000    0.00000000
     atom    7 type  1   force =     0.00000000    0.00000000    0.00000000
     atom    8 type  1   force =     0.00000000    0.00000000    0.00000000
     atom    9 type  1   force =     0.00000000    0.00000000    0.00000000
     atom   10 type  1   force =     0.00000000    0.00000000    0.00000000
     atom   11 type  1   force =     0.00000000    0.00000000    0.00000000
     atom   12 type  1   force =     0.00000000    0.00000000    0.00000000
     atom   13 type  1   force =     0.00000000    0.00000000    0.00000000
     atom   14 type  1   force =     0.00000000    0.00000000    0.00000000
     atom   15 type  1   force =     0.00000000    0.00000000    0.00000000
     atom   16 type  1   force =     0.00000000    0.00000000    0.00000000
     atom   17 type  1   force =     0.00000000    0.00000000    0.00000000
     atom   18 type  1   force =     0.00000000    0.00000000    0.00000000
     atom   19 type  1   force =     0.00000000    0.00000000    0.00000000
     atom   20 type  1   force =     0.00000000    0.00000000    0.00000000
     atom   21 type  1   force =     0.00000000    0.00000000    0.00000000
     atom   22 type  1   force =     0.00000000    0.00000000    0.00000000
     atom   23 type  1   force =     0.00000000    0.00000000    0.00000000
     atom   24 type  1   force =     0.00000000    0.00000000    0.00000000
     The Hubbard contrib.    to forces
     atom    1 type  1   force =     0.00000000    0.00000000    0.00000000
     atom    2 type  1   force =     0.00000000    0.00000000    0.00000000
     atom    3 type  1   force =     0.00000000    0.00000000    0.00000000
     atom    4 type  1   force =     0.00000000    0.00000000    0.00000000
     atom    5 type  1   force =     0.00000000    0.00000000    0.00000000
     atom    6 type  1   force =     0.00000000    0.00000000    0.00000000
     atom    7 type  1   force =     0.00000000    0.00000000    0.00000000
     atom    8 type  1   force =     0.00000000    0.00000000    0.00000000
     atom    9 type  1   force =     0.00000000    0.00000000    0.00000000
     atom   10 type  1   force =     0.00000000    0.00000000    0.00000000
     atom   11 type  1   force =     0.00000000    0.00000000    0.00000000
     atom   12 type  1   force =     0.00000000    0.00000000    0.00000000
     atom   13 type  1   force =     0.00000000    0.00000000    0.00000000
     atom   14 type  1   force =     0.00000000    0.00000000    0.00000000
     atom   15 type  1   force =     0.00000000    0.00000000    0.00000000
     atom   16 type  1   force =     0.00000000    0.00000000    0.00000000
     atom   17 type  1   force =     0.00000000    0.00000000    0.00000000
     atom   18 type  1   force =     0.00000000    0.00000000    0.00000000
     atom   19 type  1   force =     0.00000000    0.00000000    0.00000000
     atom   20 type  1   force =     0.00000000    0.00000000    0.00000000
     atom   21 type  1   force =     0.00000000    0.00000000    0.00000000
     atom   22 type  1   force =     0.00000000    0.00000000    0.00000000
     atom   23 type  1   force =     0.00000000    0.00000000    0.00000000
     atom   24 type  1   force =     0.00000000    0.00000000    0.00000000
     The SCF correction term to forces
     atom    1 type  1   force =    -0.00000055   -0.00000000    0.00000105
     atom    2 type  1   force =     0.00000018   -0.00000009   -0.00000138
     atom    3 type  1   force =    -0.00000004   -0.00000000    0.00000058
     atom    4 type  1   force =    -0.00000005    0.00000003    0.00000026
     atom    5 type  1   force =     0.00000020   -0.00000000   -0.00000008
     atom    6 type  1   force =     0.00000011   -0.00000036    0.00000048
     atom    7 type  1   force =     0.00000024    0.00000000    0.00000209
     atom    8 type  1   force =     0.00000018    0.00000009   -0.00000138
     atom    9 type  1   force =    -0.00000004    0.00000000    0.00000058
     atom   10 type  1   force =    -0.00000005   -0.00000003    0.00000026
     atom   11 type  1   force =    -0.00000016    0.00000000   -0.00000011
     atom   12 type  1   force =     0.00000011    0.00000036    0.00000048
     atom   13 type  1   force =     0.00000037   -0.00000000    0.00000115
     atom   14 type  1   force =     0.00000009   -0.00000004   -0.00000141
     atom   15 type  1   force =    -0.00000021   -0.00000000    0.00000030
     atom   16 type  1   force =    -0.00000011   -0.00000024    0.00000030
     atom   17 type  1   force =    -0.00000017   -0.00000000   -0.00000039
     atom   18 type  1   force =     0.00000013   -0.00000075    0.00000042
     atom   19 type  1   force =    -0.00000035    0.00000000    0.00000209
     atom   20 type  1   force =     0.00000009    0.00000004   -0.00000141
     atom   21 type  1   force =     0.00000000    0.00000000    0.00000093
     atom   22 type  1   force =    -0.00000011    0.00000024    0.00000030
     atom   23 type  1   force =     0.00000026    0.00000000   -0.00000001
     atom   24 type  1   force =     0.00000013    0.00000075    0.00000042

     Total force =     0.000785     Total SCF correction =     0.000005
     Energy error            =      2.9E-06 Ry
     Gradient error          =      2.3E-04 Ry/Bohr

     bfgs converged in  18 scf cycles and  17 bfgs steps
     (criteria: energy <  1.0E-05 Ry, force <  3.9E-04 Ry/Bohr)

     End of BFGS Geometry Optimization

     Final energy             =    -361.1269227395 Ry

     File ./Li/Lithium.bfgs deleted, as requested
Begin final coordinates

ATOMIC_POSITIONS (angstrom)
Li               2.7257472795        4.8580445300       26.6499576696
Li               1.2409651540        2.4255916303       20.3935008777
Li               2.7256365585        4.8580445600       21.3240123757
Li               2.7288693288        2.4271747912       23.0397958288
Li               1.2456649937        4.8580445800       24.0069982958
Li               1.2371283168        2.4265970833       25.7222151556
Li               2.7214714890        9.7160883600       26.6462983263
Li               1.2409651140        7.2904975297       20.3935009377
Li               2.7230036833        9.7160883800       21.3313008864
Li               2.7288691488        7.2889143488       23.0397958688
Li               1.2439386813        9.7160883300       24.0078096548
Li               1.2371282468        7.2894920267       25.7222152355
Li               5.6976926605        4.8580445300       26.6495196942
Li               4.2161425499        2.4254736670       20.3934523758
Li               5.7008701688        4.8580445600       21.3246460618
Li               5.7040660112        2.4281640796       23.0396331908
Li               4.2219792857        4.8580445800       24.0085477219
Li               4.2121038200        2.4285627431       25.7223226013
Li               5.6989276891        9.7160883600       26.6469410861
Li               4.2161424999        7.2906154930       20.3934524458
Li               5.6975596721        9.7160883800       21.3304558252
Li               5.7040658312        7.2879250604       23.0396332308
Li               4.2170698785        9.7160883300       24.0064898638
Li               4.2121037500        7.2875263669       25.7223226813
End final coordinates

     Writing all to output data dir ./Li/Lithium.save/ :
     XML data file

     General routines

     Parallel routines

     PAW routines

     Environ routines

   This run was terminated on:   5:31:44   5Jan2025

   JOB DONE.