     Program PWSCF v.7.4 starts on 21Jan2025 at 10:53:54

     Reading input from espresso.pwi
Warning: card &CELL ignored
Warning: card    PRESS_CONV_THR   = 0.1 ignored
Warning: card    CELL_DOFREE      = 'ALL' ignored
Warning: card / ignored
Warning: card &FCP ignored
Warning: card / ignored
Warning: card &RISM ignored
Warning: card / ignored

     Current dimensions of program PWSCF are:
     Max number of different atomic species (ntypx) = 10
     Max number of k-points (npk) =  40000
     Max angular momentum in pseudopotentials (lmaxx) =  4

     IMPORTANT: XC functional enforced from input :
     Exchange-correlation= PBE
                           (   1   4   3   4   0   0   0)
     Any further DFT definition will be discarded
     Please, verify this is what you really want

     Reading input from environ.in:
     * using ionic solvent mode
     * setting boundary derivatives method to SSCS default
     * setting electrolyte-boundary derivatives method to SSCS default

Environ Warning (1001): card EOF ignored

     K-points division:     npool     =       2
     R & G space division:  proc/nbgrp/npool/nimage =     192
     Subspace diagonalization in iterative solution of the eigenvalue problem:
     a serial algorithm will be used

     Using Slab Decomposition

     bravais-lattice index     =           14
     lattice parameter (alat)  =      11.2436  a.u.
     unit-cell volume          =   10615.2838 (a.u.)^3
     number of atoms/cell      =           16
     number of atomic types    =            1
     number of electrons       =        48.00
     number of Kohn-Sham states=           36
     kinetic-energy cutoff     =      80.0000  Ry
     charge density cutoff     =     800.0000  Ry
     scf convergence threshold =      1.0E-16
     mixing beta               =       0.2000
     number of iterations used =            8  local-TF  mixing
     Exchange-correlation= PBE
                           (   1   4   3   4   0   0   0)

                                  Environ Setup Summary

          O. Andreussi, I. Dabo and N. Marzari, J. Chem. Phys. 136, 064102 (2012)
          F. Nattino, M. Truscott, N. Marzari, and O. Andreussi, J. Chem. Phys. 150, 041722 (2019)

     in publications or presentations arising from this work.

     Parameters

     compensation onset threshold      =               0.1000E+00
     static permittivity               =                    89.90
     surface tension in input (dyn/cm) =                    37.30
     surface tension in internal units =               0.4792E-04

     Solvent Boundary

     solvent mode                      =                    ionic
     derivatives method                =                   lowmem
     electrolyte derivatives method    =                   lowmem
     numerical core for derivatives    =                      fft
     switching function adopted        =                     SCCS
     density limit for vacuum region   =               0.5000E-02
     density limit for bulk solvent    =               0.1000E-03
     soft-sphere radius mode           =                    bondi
     soft-sphere softness              =                     0.50
     alpha                             =                     1.32

     Electrostatic Setup

     electrostatic problem to solve    =                    modpb
     numerical solver adopted          =                   newton
     type of auxiliary density adopted =                     none
     numerical core for poisson        =                      fft
     adopting a nested solver scheme
     inner solver                      =                       cg
     inner core                        =                      fft
     type of pbc corrections           =                parabolic
     numerical core for corrections    =                      1da

     >>>>> Grand-Canonical SCF is activated <<<<<
     Initial Total Charge  =     0.000000 e
     Target Fermi Energy   =    -5.404000 eV
     Thr. of Fermi Energy  =     0.001000 eV
     Wave-shift of Kerker  =     0.400000 bohr^-1
     Wave-shift of Hartree =     1.500000 bohr^-1
     Mixing Rate of Fermi  =     0.050000

     celldm(1)=  11.243615  celldm(2)=   1.000000  celldm(3)=   7.921182
     celldm(4)=   0.000000  celldm(5)=   0.000000  celldm(6)=  -0.333333

     crystal axes: (cart. coord. in units of alat)
               a(1) = (   1.000000   0.000000   0.000000 )
               a(2) = (  -0.333333   0.942809   0.000000 )
               a(3) = (   0.000000   0.000000   7.921182 )

     reciprocal axes: (cart. coord. in units 2 pi/alat)
               b(1) = (  1.000000  0.353553 -0.000000 )
               b(2) = (  0.000000  1.060660  0.000000 )
               b(3) = (  0.000000 -0.000000  0.126244 )

     PseudoPot. # 1 for Li read from file:
     /work/e89/e89/ba3g18/Repos/Pseudopotentials/Pslibrary/Li.pbe-sl-kjpaw_psl.1.0.0.UPF
     MD5 check sum: 3f4d2cafebb47c6c3aa8ed472e6f074d
     Pseudo is Projector augmented-wave, Zval =  3.0
     Generated using 'atomic' code by A. Dal Corso  v.7.4
     Shape of augmentation charge: PSQ
     Using radial grid of 1017 points,  4 beta functions with:
                l(1) =   0
                l(2) =   0
                l(3) =   1
                l(4) =   1
     Q(r) pseudized with 0 coefficients

     atomic species   valence    mass     pseudopotential
     Li                3.00     6.94000     Li( 1.00)

      2 Sym. Ops. (no inversion) found

                                    s                        frac. trans.

      isym =  1     identity

 cryst.   s( 1) = (     1          0          0      )
                  (     0          1          0      )
                  (     0          0          1      )

 cart.    s( 1) = (  1.0000000 -0.0000000  0.0000000 )
                  (  0.0000000  1.0000000  0.0000000 )
                  (  0.0000000  0.0000000  1.0000000 )

      isym =  2     180 deg rotation - cart. axis [0,0,1]

 cryst.   s( 2) = (    -1          0          0      )
                  (     0         -1          0      )
                  (     0          0          1      )

 cart.    s( 2) = ( -1.0000000  0.0000000  0.0000000 )
                  (  0.0000000 -1.0000000  0.0000000 )
                  (  0.0000000  0.0000000  1.0000000 )

     point group C_2  (2)
     there are  2 classes
     the character table:

       E     C2
A      1.00  1.00
B      1.00 -1.00

     the symmetry operations in each class and the name of the first element:

     E        1
          identity
     C2       2
          180 deg rotation - cart. axis [0,0,1]

   Cartesian axes

     site n.     atom                  positions (alat units)
         1        Li     tau(   1) = (   0.1666639   0.2357028   3.3536902  )
         2        Li     tau(   2) = (   0.3333333   0.4714046   3.7508721  )
         3        Li     tau(   3) = (   0.1666694   0.2356996   4.1703897  )
         4        Li     tau(   4) = (   0.3333333   0.4714046   4.5673916  )
         5        Li     tau(   5) = (   0.0000010   0.7071081   3.3537094  )
         6        Li     tau(   6) = (   0.1666667   0.9428090   3.7508870  )
         7        Li     tau(   7) = (  -0.0000055   0.7071001   4.1704001  )
         8        Li     tau(   8) = (   0.1666667   0.9428090   4.5674038  )
         9        Li     tau(   9) = (   0.6666657   0.2357009   3.3537094  )
        10        Li     tau(  10) = (   0.8333333   0.4714046   3.7508793  )
        11        Li     tau(  11) = (   0.6666722   0.2357090   4.1704001  )
        12        Li     tau(  12) = (   0.8333333   0.4714046   4.5674163  )
        13        Li     tau(  13) = (   0.5000028   0.7071062   3.3536902  )
        14        Li     tau(  14) = (   0.6666667   0.9428090   3.7508713  )
        15        Li     tau(  15) = (   0.4999973   0.7071095   4.1703897  )
        16        Li     tau(  16) = (   0.6666667   0.9428090   4.5673975  )

   Crystallographic axes

     site n.     atom                  positions (cryst. coord.)
         1        Li     tau(   1) = (  0.2499973  0.2500006  0.4233825  )
         2        Li     tau(   2) = (  0.4999999  0.5000001  0.4735243  )
         3        Li     tau(   3) = (  0.2500017  0.2499972  0.5264858  )
         4        Li     tau(   4) = (  0.4999999  0.5000001  0.5766048  )
         5        Li     tau(   5) = (  0.2500012  0.7500015  0.4233850  )
         6        Li     tau(   6) = (  0.4999997  1.0000001  0.4735262  )
         7        Li     tau(   7) = (  0.2499919  0.7499929  0.5264871  )
         8        Li     tau(   8) = (  0.4999997  1.0000000  0.5766063  )
         9        Li     tau(   9) = (  0.7499985  0.2499986  0.4233850  )
        10        Li     tau(  10) = (  0.9999999  0.5000001  0.4735252  )
        11        Li     tau(  11) = (  0.7500078  0.2500072  0.5264871  )
        12        Li     tau(  12) = (  0.9999999  0.5000001  0.5766079  )
        13        Li     tau(  13) = (  0.7500024  0.7499995  0.4233825  )
        14        Li     tau(  14) = (  0.9999997  1.0000000  0.4735242  )
        15        Li     tau(  15) = (  0.7499980  0.7500029  0.5264858  )
        16        Li     tau(  16) = (  0.9999997  1.0000000  0.5766055  )

     number of k points=    61  Marzari-Vanderbilt smearing, width (Ry)=  0.0100
                       cart. coord. in units 2pi/alat
        k(    1) = (   0.0000000   0.0000000   0.0000000), wk =   0.0165289
        k(    2) = (   0.0000000   0.0964237   0.0000000), wk =   0.0330579
        k(    3) = (   0.0000000   0.1928473   0.0000000), wk =   0.0330579
        k(    4) = (   0.0000000   0.2892710   0.0000000), wk =   0.0330579
        k(    5) = (   0.0000000   0.3856946   0.0000000), wk =   0.0330579
        k(    6) = (   0.0000000   0.4821183   0.0000000), wk =   0.0330579
        k(    7) = (   0.0909091   0.0321412   0.0000000), wk =   0.0330579
        k(    8) = (   0.0909091   0.1285648   0.0000000), wk =   0.0330579
        k(    9) = (   0.0909091   0.2249885   0.0000000), wk =   0.0330579
        k(   10) = (   0.0909091   0.3214122   0.0000000), wk =   0.0330579
        k(   11) = (   0.0909091   0.4178358   0.0000000), wk =   0.0330579
        k(   12) = (   0.0909091   0.5142595   0.0000000), wk =   0.0330579
        k(   13) = (   0.0909091  -0.4499771   0.0000000), wk =   0.0330579
        k(   14) = (   0.0909091  -0.3535534   0.0000000), wk =   0.0330579
        k(   15) = (   0.0909091  -0.2571298   0.0000000), wk =   0.0330579
        k(   16) = (   0.0909091  -0.1607061   0.0000000), wk =   0.0330579
        k(   17) = (   0.0909091  -0.0642825   0.0000000), wk =   0.0330579
        k(   18) = (   0.1818182   0.0642824   0.0000000), wk =   0.0330579
        k(   19) = (   0.1818182   0.1607060   0.0000000), wk =   0.0330579
        k(   20) = (   0.1818182   0.2571297   0.0000000), wk =   0.0330579
        k(   21) = (   0.1818182   0.3535533   0.0000000), wk =   0.0330579
        k(   22) = (   0.1818182   0.4499770   0.0000000), wk =   0.0330579
        k(   23) = (   0.1818182   0.5464007   0.0000000), wk =   0.0330579
        k(   24) = (   0.1818182  -0.4178359   0.0000000), wk =   0.0330579
[...]
        k(   51) = (   0.4545455  -0.0000000   0.0000000), wk =   0.0330579
        k(   52) = (   0.4545455   0.0909091   0.0000000), wk =   0.0330579
        k(   53) = (   0.4545455   0.1818182   0.0000000), wk =   0.0330579
        k(   54) = (   0.4545455   0.2727273   0.0000000), wk =   0.0330579
        k(   55) = (   0.4545455   0.3636364   0.0000000), wk =   0.0330579
        k(   56) = (   0.4545455   0.4545455   0.0000000), wk =   0.0330579
        k(   57) = (   0.4545455  -0.4545455   0.0000000), wk =   0.0330579
        k(   58) = (   0.4545455  -0.3636364   0.0000000), wk =   0.0330579
        k(   59) = (   0.4545455  -0.2727273   0.0000000), wk =   0.0330579
        k(   60) = (   0.4545455  -0.1818182   0.0000000), wk =   0.0330579
        k(   61) = (   0.4545455  -0.0909091   0.0000000), wk =   0.0330579

     Initial potential from superposition of free atoms

     starting charge      47.9263, renormalised to      48.0000

     negative rho (up, down):  1.953E-03 0.000E+00
     Starting wfcs are random
     Checking if some PAW data can be deallocated...

     Self-consistent Calculation

     iteration #  1     ecut=    80.00 Ry     beta= 0.20
     Davidson diagonalization with overlap

     c_bands:  3 eigenvalues not converged
     c_bands:  1 eigenvalues not converged
     c_bands:  1 eigenvalues not converged
     c_bands:  1 eigenvalues not converged
     c_bands:  1 eigenvalues not converged
     c_bands:  1 eigenvalues not converged
     c_bands:  2 eigenvalues not converged
     c_bands:  1 eigenvalues not converged
     ethr =  1.00E-12,  avg # of iterations =147.9

     negative rho (up, down):  1.469E-03 0.000E+00

     add environment contribution to local potential

     total energy              =    -240.62326012 Ry
     estimated scf accuracy    <       0.05823344 Ry

     total charge of GC-SCF    =       0.04512272 e
     the Fermi energy          =      -4.75321079 eV
                        (error :       0.65078921 eV)
     electrostatic embedding   =       0.00000000 Ry
     cavitation energy         =       0.01235683 Ry
     electrolyte free energy   =       0.00456895 Ry
     correction to one-el term =      -0.00000000 Ry

[...]

     ethr =  1.00E-05,  avg # of iterations = 13.4

[...]

     c_bands:  1 eigenvalues not converged
     ethr =  6.11E-12,  avg # of iterations = 14.1

[...]

     ethr =  2.09E-12,  avg # of iterations = 10.5

[...]

     add environment contribution to local potential

     total energy              =    -240.78835899 Ry
     estimated scf accuracy    <          1.4E-16 Ry

     total charge of GC-SCF    =       1.91524548 e
     the Fermi energy          =      -5.40399988 eV
                        (error :       0.00000012 eV)
     electrostatic embedding   =      -1.16173677 Ry
     cavitation energy         =       0.01235683 Ry
     electrolyte free energy   =      -0.01663032 Ry
     correction to one-el term =     -53.95786016 Ry

     iteration # 77     ecut=    80.00 Ry     beta= 0.20
     Davidson diagonalization with overlap

     c_bands:  1 eigenvalues not converged
     c_bands:  1 eigenvalues not converged
     c_bands:  1 eigenvalues not converged
     ethr =  1.00E-13,  avg # of iterations = 12.7

     negative rho (up, down):  2.685E-04 0.000E+00

     End of self-consistent calculation

          k = 0.0000 0.0000 0.0000 (128001 PWs)   bands (ev):

   -52.6221 -52.6214 -52.6128 -52.6128 -52.6121 -52.6121 -52.6064 -52.6057
   -51.8562 -51.8483 -51.8430 -51.8430 -51.8424 -51.8424 -51.8387 -51.8334
    -8.7353  -8.0831  -6.7417  -5.2970  -5.2969  -5.2967  -5.2967  -4.9154
    -4.9154  -4.9152  -4.9152  -4.8798  -4.3394  -4.1536  -3.6239  -2.5651
    -2.0215  -1.7337  -1.7337  -1.7332

     occupation numbers
     1.0000   1.0000   1.0000   1.0000   1.0000   1.0000   1.0000   1.0000
     1.0000   1.0000   1.0000   1.0000   1.0000   1.0000   1.0000   1.0000
     1.0000   1.0000   1.0000   0.0601   0.0601   0.0598   0.0598   0.0000
     0.0000   0.0000   0.0000   0.0000   0.0000   0.0000   0.0000   0.0000
     0.0000   0.0000   0.0000   0.0000

[...]

          k = 0.4545 0.0643 0.0000 (128255 PWs)   bands (ev):

   -52.6182 -52.6175 -52.6164 -52.6157 -52.6100 -52.6095 -52.6093 -52.6088
   -51.8514 -51.8487 -51.8450 -51.8442 -51.8417 -51.8412 -51.8385 -51.8369
    -8.0682  -7.5278  -7.4190  -6.8931  -6.0620  -5.9290  -5.5575  -5.2855
    -4.9740  -4.4881  -4.0354  -3.9477  -3.9275  -3.7850  -3.5179  -2.8241
    -2.5025  -2.1996  -1.6510  -1.3731

     occupation numbers
     1.0000   1.0000   1.0000   1.0000   1.0000   1.0000   1.0000   1.0000
     1.0000   1.0000   1.0000   1.0000   1.0000   1.0000   1.0000   1.0000
     1.0000   1.0000   1.0000   1.0000   1.0000   1.0000   1.0584   0.0458
     0.0000   0.0000   0.0000   0.0000   0.0000   0.0000   0.0000   0.0000
     0.0000   0.0000   0.0000   0.0000

     the Fermi energy is    -5.4040 ev

!    total energy              =    -240.78835900 Ry
     total all-electron energy =      -240.788489 Ry
     estimated scf accuracy    <          9.3E-17 Ry

!    total charge of GC-SCF    =       1.91524558 e
     smearing contrib. (-TS)   =       0.00002201 Ry
     internal energy E=F+TS    =    -240.78838101 Ry

     The total energy is F=E-TS. E is the sum of the following terms:
     one-electron contribution =   -2351.56894972 Ry
     hartree contribution      =    1144.94752812 Ry
     xc contribution           =     -56.69452031 Ry
     ewald contribution        =    1076.99905161 Ry
     one-center paw contrib.   =       1.41308766 Ry
      -> PAW hartree energy AE =       7.30123169 Ry
      -> PAW hartree energy PS =      -7.07810517 Ry
      -> PAW xc energy AE      =      -3.46321012 Ry
      -> PAW xc energy PS      =       3.32846778 Ry
      -> total E_H with PAW    =    1145.17065464 Ry
      -> total E_XC with PAW   =     -56.82926265 Ry
     pot.stat. contrib. (-muN) =      -0.76071002 Ry
     electrostatic embedding   =      -1.16173668 Ry
     cavitation energy         =       0.01235683 Ry
     electrolyte free energy   =      -0.01663032 Ry
     correction to one-el term =     -53.95785818 Ry

     WARNING: you are using the parabolic pbc correction;
              the potential shift above must be added to
              band and Fermi energies.

     convergence has been achieved in  77 iterations
     The dielectric solvent contribution to forces
     atom    1 type  1   force =     0.00000021    0.00000011   -0.05756408
     atom    2 type  1   force =    -0.00000000   -0.00000000   -0.02983735
     atom    3 type  1   force =     0.00000013   -0.00000002    0.02980448
     atom    4 type  1   force =     0.00000000    0.00000001    0.05752698
     atom    5 type  1   force =     0.00000020    0.00000002   -0.05756961
     atom    6 type  1   force =     0.00000000    0.00000000   -0.02983547
     atom    7 type  1   force =     0.00000014    0.00000013    0.02980574
     atom    8 type  1   force =     0.00000000   -0.00000001    0.05752347
     atom    9 type  1   force =    -0.00000020   -0.00000002   -0.05756961
     atom   10 type  1   force =     0.00000000   -0.00000000   -0.02983656
     atom   11 type  1   force =    -0.00000014   -0.00000013    0.02980574
     atom   12 type  1   force =    -0.00000000    0.00000001    0.05751981
     atom   13 type  1   force =    -0.00000021   -0.00000011   -0.05756408
     atom   14 type  1   force =     0.00000000    0.00000000   -0.02983740
     atom   15 type  1   force =    -0.00000013    0.00000002    0.02980448
     atom   16 type  1   force =     0.00000000   -0.00000001    0.05752524

     Forces acting on atoms (cartesian axes, Ry/au):

     atom    1 type  1   force =     0.00000045    0.00000014   -0.00113343
     atom    2 type  1   force =     0.00000000    0.00000000    0.00000737
     atom    3 type  1   force =     0.00000040   -0.00000040   -0.00004495
     atom    4 type  1   force =     0.00000000    0.00000000    0.00116986
     atom    5 type  1   force =     0.00000040    0.00000006   -0.00113244
     atom    6 type  1   force =     0.00000000    0.00000000    0.00000741
     atom    7 type  1   force =     0.00000062    0.00000055   -0.00004472
     atom    8 type  1   force =     0.00000000    0.00000000    0.00117027
     atom    9 type  1   force =    -0.00000040   -0.00000006   -0.00113244
     atom   10 type  1   force =     0.00000000    0.00000000    0.00000838
     atom   11 type  1   force =    -0.00000062   -0.00000055   -0.00004472
     atom   12 type  1   force =     0.00000000    0.00000000    0.00117088
     atom   13 type  1   force =    -0.00000045   -0.00000014   -0.00113343
     atom   14 type  1   force =     0.00000000    0.00000000    0.00000756
     atom   15 type  1   force =    -0.00000040    0.00000040   -0.00004495
     atom   16 type  1   force =     0.00000000    0.00000000    0.00116937
     The non-local contrib.  to forces
     atom    1 type  1   force =     0.00000141    0.00000008   -0.08732073
     atom    2 type  1   force =     0.00000000    0.00000000    0.00711141
     atom    3 type  1   force =     0.00000078   -0.00000054   -0.00715818
     atom    4 type  1   force =     0.00000000    0.00000000    0.08733805
     atom    5 type  1   force =     0.00000140    0.00000087   -0.08731788
     atom    6 type  1   force =     0.00000000    0.00000000    0.00710928
     atom    7 type  1   force =     0.00000009    0.00000092   -0.00715968
     atom    8 type  1   force =     0.00000000    0.00000000    0.08733985
     atom    9 type  1   force =    -0.00000140   -0.00000087   -0.08731788
     atom   10 type  1   force =     0.00000000    0.00000000    0.00710990
     atom   11 type  1   force =    -0.00000009   -0.00000092   -0.00715968
     atom   12 type  1   force =     0.00000000    0.00000000    0.08734217
     atom   13 type  1   force =    -0.00000141   -0.00000008   -0.08732073
     atom   14 type  1   force =     0.00000000    0.00000000    0.00711121
     atom   15 type  1   force =    -0.00000078    0.00000054   -0.00715818
     atom   16 type  1   force =     0.00000000    0.00000000    0.08733894
     The ionic contribution  to forces
     atom    1 type  1   force =     0.00001501    0.00000265   -9.00238665
     atom    2 type  1   force =    -0.00000006   -0.00000006   -3.00636642
     atom    3 type  1   force =     0.00001111   -0.00000910    3.00599972
     atom    4 type  1   force =    -0.00000005   -0.00000011    9.00235367
     atom    5 type  1   force =     0.00001432    0.00000701   -9.00216201
     atom    6 type  1   force =     0.00000006    0.00000007   -3.00613910
     atom    7 type  1   force =     0.00001485    0.00001783    3.00615879
     atom    8 type  1   force =     0.00000004    0.00000012    9.00248995
     atom    9 type  1   force =    -0.00001435   -0.00000703   -9.00216181
     atom   10 type  1   force =    -0.00000001   -0.00000005   -3.00624852
     atom   11 type  1   force =    -0.00001489   -0.00001785    3.00615888
     atom   12 type  1   force =    -0.00000001   -0.00000011    9.00264686
     atom   13 type  1   force =    -0.00001504   -0.00000267   -9.00238682
     atom   14 type  1   force =     0.00000010    0.00000009   -3.00637115
     atom   15 type  1   force =    -0.00001116    0.00000908    3.00599961
     atom   16 type  1   force =     0.00000007    0.00000013    9.00241499
     The local contribution  to forces
     atom    1 type  1   force =     0.00003939   -0.00001323    9.14613717
     atom    2 type  1   force =     0.00005791   -0.00002187    3.02909969
     atom    3 type  1   force =     0.00004423   -0.00000042   -3.02869186
     atom    4 type  1   force =     0.00005733   -0.00002302   -9.14604886
     atom    5 type  1   force =     0.00004005   -0.00001838    9.14591872
     atom    6 type  1   force =     0.00010287   -0.00001644    3.02887266
     atom    7 type  1   force =     0.00004140   -0.00002801   -3.02884905
     atom    8 type  1   force =     0.00010403   -0.00001408   -9.14618303
     atom    9 type  1   force =     0.00007113   -0.00000268    9.14591510
     atom   10 type  1   force =     0.00005867   -0.00002129    3.02898352
     atom   11 type  1   force =     0.00007036    0.00000866   -3.02885026
     atom   12 type  1   force =     0.00005809   -0.00002244   -9.14633799
     atom   13 type  1   force =     0.00007179   -0.00000782    9.14613898
     atom   14 type  1   force =     0.00010363   -0.00001586    3.02910487
     atom   15 type  1   force =     0.00006753   -0.00001893   -3.02869005
     atom   16 type  1   force =     0.00010479   -0.00001292   -9.14610983
     The core correction contribution to forces
     atom    1 type  1   force =     0.00000000    0.00000000    0.00000000
     atom    2 type  1   force =     0.00000000    0.00000000    0.00000000
     atom    3 type  1   force =     0.00000000    0.00000000    0.00000000
     atom    4 type  1   force =     0.00000000    0.00000000    0.00000000
     atom    5 type  1   force =     0.00000000    0.00000000    0.00000000
     atom    6 type  1   force =     0.00000000    0.00000000    0.00000000
     atom    7 type  1   force =     0.00000000    0.00000000    0.00000000
     atom    8 type  1   force =     0.00000000    0.00000000    0.00000000
     atom    9 type  1   force =     0.00000000    0.00000000    0.00000000
     atom   10 type  1   force =     0.00000000    0.00000000    0.00000000
     atom   11 type  1   force =     0.00000000    0.00000000    0.00000000
     atom   12 type  1   force =     0.00000000    0.00000000    0.00000000
     atom   13 type  1   force =     0.00000000    0.00000000    0.00000000
     atom   14 type  1   force =     0.00000000    0.00000000    0.00000000
     atom   15 type  1   force =     0.00000000    0.00000000    0.00000000
     atom   16 type  1   force =     0.00000000    0.00000000    0.00000000
     The Hubbard contrib.    to forces
     atom    1 type  1   force =     0.00000000    0.00000000    0.00000000
     atom    2 type  1   force =     0.00000000    0.00000000    0.00000000
     atom    3 type  1   force =     0.00000000    0.00000000    0.00000000
     atom    4 type  1   force =     0.00000000    0.00000000    0.00000000
     atom    5 type  1   force =     0.00000000    0.00000000    0.00000000
     atom    6 type  1   force =     0.00000000    0.00000000    0.00000000
     atom    7 type  1   force =     0.00000000    0.00000000    0.00000000
     atom    8 type  1   force =     0.00000000    0.00000000    0.00000000
     atom    9 type  1   force =     0.00000000    0.00000000    0.00000000
     atom   10 type  1   force =     0.00000000    0.00000000    0.00000000
     atom   11 type  1   force =     0.00000000    0.00000000    0.00000000
     atom   12 type  1   force =     0.00000000    0.00000000    0.00000000
     atom   13 type  1   force =     0.00000000    0.00000000    0.00000000
     atom   14 type  1   force =     0.00000000    0.00000000    0.00000000
     atom   15 type  1   force =     0.00000000    0.00000000    0.00000000
     atom   16 type  1   force =     0.00000000    0.00000000    0.00000000
     The SCF correction term to forces
     atom    1 type  1   force =     0.00000000   -0.00000000    0.00000001
     atom    2 type  1   force =     0.00000000   -0.00000000   -0.00000000
     atom    3 type  1   force =    -0.00000000   -0.00000000    0.00000001
     atom    4 type  1   force =     0.00000000   -0.00000000   -0.00000001
     atom    5 type  1   force =    -0.00000000   -0.00000000    0.00000001
     atom    6 type  1   force =    -0.00000000   -0.00000000   -0.00000000
     atom    7 type  1   force =     0.00000000    0.00000000    0.00000001
     atom    8 type  1   force =     0.00000000    0.00000000   -0.00000001
     atom    9 type  1   force =    -0.00000000   -0.00000000    0.00000001
     atom   10 type  1   force =    -0.00000000   -0.00000000   -0.00000000
     atom   11 type  1   force =    -0.00000000   -0.00000000    0.00000000
     atom   12 type  1   force =    -0.00000000    0.00000000   -0.00000001
     atom   13 type  1   force =    -0.00000000    0.00000000    0.00000001
     atom   14 type  1   force =    -0.00000000    0.00000000   -0.00000000
     atom   15 type  1   force =     0.00000000   -0.00000000    0.00000001
     atom   16 type  1   force =    -0.00000000   -0.00000000   -0.00000001

     Total force =     0.003259     Total SCF correction =     0.000000

     Writing all to output data dir ./Li/Lithium.save/ :
     XML data file

     General routines

     Parallel routines

     PAW routines

     Environ routines

   This run was terminated on:  11:13: 6  21Jan2025

   JOB DONE.