     Program PWSCF v.7.4 starts on 28Dec2024 at 17:57:48

     Reading input from espresso.pwi
Warning: card &CELL ignored
Warning: card    PRESS_CONV_THR   = 0.1 ignored
Warning: card    CELL_DOFREE      = 'ALL' ignored
Warning: card / ignored
Warning: card &FCP ignored
Warning: card / ignored
Warning: card &RISM ignored
Warning: card / ignored

     Current dimensions of program PWSCF are:
     Max number of different atomic species (ntypx) = 10
     Max number of k-points (npk) =  40000
     Max angular momentum in pseudopotentials (lmaxx) =  4

     IMPORTANT: XC functional enforced from input :
     Exchange-correlation= PBE
                           (   1   4   3   4   0   0   0)
     Any further DFT definition will be discarded
     Please, verify this is what you really want

     Reading input from environ.in:
     * using ionic solvent mode
     * setting boundary derivatives method to SSCS default
     * setting electrolyte-boundary derivatives method to SSCS default

Environ Warning (1001): card EOF ignored

     Found identity + (  0.5000  0.0000 -0.0000) symmetry
     This is a supercell, fractional translations are disabled

     K-points division:     npool     =       2
     R & G space division:  proc/nbgrp/npool/nimage =     192
     Subspace diagonalization in iterative solution of the eigenvalue problem:
     a serial algorithm will be used

     Using Slab Decomposition

     bravais-lattice index     =            8
     lattice parameter (alat)  =      12.9830  a.u.
     unit-cell volume          =   29886.2298 (a.u.)^3
     number of atoms/cell      =           52
     number of atomic types    =            1
     number of electrons       =       156.00
     number of Kohn-Sham states=          117
     kinetic-energy cutoff     =      80.0000  Ry
     charge density cutoff     =     800.0000  Ry
     scf convergence threshold =      1.0E-14
     mixing beta               =       0.2000
     number of iterations used =            8  local-TF  mixing
     Exchange-correlation= PBE
                           (   1   4   3   4   0   0   0)

                                  Environ Setup Summary

          O. Andreussi, I. Dabo and N. Marzari, J. Chem. Phys. 136, 064102 (2012)
          F. Nattino, M. Truscott, N. Marzari, and O. Andreussi, J. Chem. Phys. 150, 041722 (2019)

     in publications or presentations arising from this work.

     Parameters

     compensation onset threshold      =               0.1000E+00
     static permittivity               =                    89.90
     surface tension in input (dyn/cm) =                    37.30
     surface tension in internal units =               0.4792E-04

     Solvent Boundary

     solvent mode                      =                    ionic
     derivatives method                =                   lowmem
     electrolyte derivatives method    =                   lowmem
     numerical core for derivatives    =                      fft
     switching function adopted        =                     SCCS
     density limit for vacuum region   =               0.5000E-02
     density limit for bulk solvent    =               0.1000E-03
     soft-sphere radius mode           =                    bondi
     soft-sphere softness              =                     0.50
     alpha                             =                     1.32

     Electrostatic Setup

     electrostatic problem to solve    =                    modpb
     numerical solver adopted          =                   newton
     type of auxiliary density adopted =                     none
     numerical core for poisson        =                      fft
     adopting a nested solver scheme
     inner solver                      =                       cg
     inner core                        =                      fft
     type of pbc corrections           =                parabolic
     numerical core for corrections    =                      1da

     celldm(1)=  12.983009  celldm(2)=   1.802776  celldm(3)=   7.575360
     celldm(4)=   0.000000  celldm(5)=   0.000000  celldm(6)=   0.000000

     crystal axes: (cart. coord. in units of alat)
               a(1) = (   1.000000   0.000000   0.000000 )
               a(2) = (   0.000000   1.802776   0.000000 )
               a(3) = (   0.000000   0.000000   7.575360 )

     reciprocal axes: (cart. coord. in units 2 pi/alat)
               b(1) = (  1.000000  0.000000  0.000000 )
               b(2) = (  0.000000  0.554700  0.000000 )
               b(3) = (  0.000000  0.000000  0.132007 )

     PseudoPot. # 1 for Li read from file:
     /home/ba3g18/Repos/Pseudopotentials/pslibrary.1.0.0/pbe/PSEUDOPOTENTIALS/Li.pbe-sl-kjpaw_psl.1.0.0.UPF
     MD5 check sum: 3f4d2cafebb47c6c3aa8ed472e6f074d
     Pseudo is Projector augmented-wave, Zval =  3.0
     Generated using 'atomic' code by A. Dal Corso  v.7.4
     Shape of augmentation charge: PSQ
     Using radial grid of 1017 points,  4 beta functions with:
                l(1) =   0
                l(2) =   0
                l(3) =   1
                l(4) =   1
     Q(r) pseudized with 0 coefficients

     atomic species   valence    mass     pseudopotential
     Li                3.00     6.94000     Li( 1.00)

      2 Sym. Ops. (no inversion) found

                                    s                        frac. trans.

      isym =  1     identity

 cryst.   s( 1) = (     1          0          0      )
                  (     0          1          0      )
                  (     0          0          1      )

 cart.    s( 1) = (  1.0000000  0.0000000  0.0000000 )
                  (  0.0000000  1.0000000  0.0000000 )
                  (  0.0000000  0.0000000  1.0000000 )

      isym =  2     inv. 180 deg rotation - cart. axis [1,0,0]

 cryst.   s( 2) = (    -1          0          0      )
                  (     0          1          0      )
                  (     0          0          1      )

 cart.    s( 2) = ( -1.0000000  0.0000000  0.0000000 )
                  (  0.0000000  1.0000000  0.0000000 )
                  (  0.0000000  0.0000000  1.0000000 )

     point group C_s (m)
     there are  2 classes
     the character table:

       E     s
A'     1.00  1.00
A''    1.00 -1.00

     the symmetry operations in each class and the name of the first element:

     E        1
          identity
     s        2
          inv. 180 deg rotation - cart. axis [1,0,0]

   Cartesian axes

     site n.     atom                  positions (alat units)
         1        Li     tau(   1) = (  -0.0000000   1.1549884   4.5231607  )
         2        Li     tau(   2) = (  -0.0000000   1.5267950   4.2570255  )
         3        Li     tau(   3) = (  -0.0000000   0.4289595   4.3568589  )
         4        Li     tau(   4) = (  -0.0000000   0.8335874   4.1007768  )
         5        Li     tau(   5) = (  -0.0000000   1.2470596   3.8279238  )
         6        Li     tau(   6) = (  -0.0000000   1.6603452   3.5632719  )
         7        Li     tau(   7) = (  -0.0000000   0.1383544   3.9632176  )
         8        Li     tau(   8) = (  -0.0000000   0.5577362   3.6642443  )
         9        Li     tau(   9) = (  -0.0000000   0.9702119   3.3956913  )
        10        Li     tau(  10) = (  -0.0000000   1.3695222   3.1268562  )
        11        Li     tau(  11) = (  -0.0000000   0.2719694   3.2632736  )
        12        Li     tau(  12) = (  -0.0000000   0.6141657   2.9742715  )
        13        Li     tau(  13) = (  -0.0000000   0.1209596   4.6642844  )
        14        Li     tau(  14) = (   0.2500000   1.1792528   4.1796707  )
        15        Li     tau(  15) = (   0.2500000   1.5917289   3.9111178  )
        16        Li     tau(  16) = (   0.2500000   0.4891196   4.0120908  )
        17        Li     tau(  17) = (   0.2500000   0.9024060   3.7474391  )
        18        Li     tau(  18) = (   0.2500000   1.3158763   3.4745862  )
        19        Li     tau(  19) = (   0.2500000   1.7205021   3.2185044  )
        20        Li     tau(  20) = (   0.2500000   0.2083349   3.6121433  )
        21        Li     tau(  21) = (   0.2500000   0.6226690   3.3183358  )
        22        Li     tau(  22) = (   0.2500000   0.9944737   3.0522005  )
        23        Li     tau(  23) = (   0.2500000   1.5352953   4.6010891  )
        24        Li     tau(  24) = (   0.2500000   0.2257232   2.9110757  )
        25        Li     tau(  25) = (   0.2500000   0.7799392   4.4485063  )
        26        Li     tau(  26) = (   0.2500000   0.0747183   4.3120870  )
        27        Li     tau(  27) = (   0.5000000   1.1549884   4.5231606  )
        28        Li     tau(  28) = (   0.5000000   1.5267950   4.2570254  )
        29        Li     tau(  29) = (   0.5000000   0.4289595   4.3568589  )
        30        Li     tau(  30) = (   0.5000000   0.8335875   4.1007768  )
        31        Li     tau(  31) = (   0.5000000   1.2470596   3.8279238  )
        32        Li     tau(  32) = (   0.5000000   1.6603452   3.5632720  )
        33        Li     tau(  33) = (   0.5000000   0.1383543   3.9632176  )
        34        Li     tau(  34) = (   0.5000000   0.5577362   3.6642443  )
        35        Li     tau(  35) = (   0.5000000   0.9702119   3.3956913  )
        36        Li     tau(  36) = (   0.5000000   1.3695222   3.1268561  )
        37        Li     tau(  37) = (   0.5000000   0.2719694   3.2632736  )
        38        Li     tau(  38) = (   0.5000000   0.6141657   2.9742715  )
        39        Li     tau(  39) = (   0.5000000   0.1209596   4.6642845  )
        40        Li     tau(  40) = (   0.7500000   1.1792528   4.1796707  )
        41        Li     tau(  41) = (   0.7500000   1.5917289   3.9111178  )
        42        Li     tau(  42) = (   0.7500000   0.4891196   4.0120908  )
        43        Li     tau(  43) = (   0.7500000   0.9024060   3.7474391  )
        44        Li     tau(  44) = (   0.7500000   1.3158763   3.4745862  )
        45        Li     tau(  45) = (   0.7500000   1.7205021   3.2185044  )
        46        Li     tau(  46) = (   0.7500000   0.2083349   3.6121433  )
        47        Li     tau(  47) = (   0.7500000   0.6226690   3.3183358  )
        48        Li     tau(  48) = (   0.7500000   0.9944737   3.0522005  )
        49        Li     tau(  49) = (   0.7500000   1.5352953   4.6010891  )
        50        Li     tau(  50) = (   0.7500000   0.2257232   2.9110757  )
        51        Li     tau(  51) = (   0.7500000   0.7799392   4.4485063  )
        52        Li     tau(  52) = (   0.7500000   0.0747183   4.3120870  )

   Crystallographic axes

     site n.     atom                  positions (cryst. coord.)
         1        Li     tau(   1) = ( -0.0000000  0.6406722  0.5970885  )
         2        Li     tau(   2) = ( -0.0000000  0.8469133  0.5619568  )
         3        Li     tau(   3) = ( -0.0000000  0.2379439  0.5751355  )
         4        Li     tau(   4) = ( -0.0000000  0.4623910  0.5413309  )
         5        Li     tau(   5) = ( -0.0000000  0.6917441  0.5053124  )
         6        Li     tau(   6) = ( -0.0000000  0.9209936  0.4703766  )
         7        Li     tau(   7) = ( -0.0000000  0.0767452  0.5231722  )
[...]
     atom   47 type  1   force =    -0.00000017    0.09838243   -7.35749924
     atom   48 type  1   force =    -0.00000023    0.51572439  -11.78486918
     atom   49 type  1   force =     0.00000006   -0.29799386   12.46376196
     atom   50 type  1   force =    -0.00000005   -0.59195148  -12.96805746
     atom   51 type  1   force =    -0.00000005   -0.18744516   11.03311611
     atom   52 type  1   force =     0.00000018    0.26841631    8.27978791
     The local contribution  to forces
     atom    1 type  1   force =     0.00000349    0.51071852  -11.84742376
     atom    2 type  1   force =     0.00000348    0.10012135   -7.36827029
     atom    3 type  1   force =     0.00000349   -0.37246835   -9.51018914
     atom    4 type  1   force =     0.00000349    0.03287337   -5.18878267
     atom    5 type  1   force =     0.00000349    0.04716947   -0.58755755
     atom    6 type  1   force =     0.00000349    0.09826675    3.73987733
     atom    7 type  1   force =     0.00000349   -0.06388393   -2.79680596
     atom    8 type  1   force =     0.00000349   -0.05010677    1.87243225
     atom    9 type  1   force =     0.00000348   -0.19630001    6.29807208
     atom   10 type  1   force =     0.00000349   -0.17250201   11.06732491
     atom   11 type  1   force =     0.00000349    0.24995840    8.28119628
     atom   12 type  1   force =     0.00000349   -0.30515005   12.54311104
     atom   13 type  1   force =     0.00000350   -0.57540634  -13.07817482
     atom   14 type  1   force =     0.00000431    0.19631533   -6.29807052
     atom   15 type  1   force =     0.00000432    0.05010146   -1.87242727
     atom   16 type  1   force =     0.00000443   -0.09827081   -3.73988153
     atom   17 type  1   force =     0.00000456   -0.04715700    0.58755153
     atom   18 type  1   force =     0.00000463   -0.03287120    5.18877152
     atom   19 type  1   force =     0.00000428    0.37245871    9.51017018
     atom   20 type  1   force =     0.00000411    0.06387329    2.79682961
     atom   21 type  1   force =     0.00000423   -0.10012304    7.36827887
     atom   22 type  1   force =     0.00000446   -0.51071098   11.84742890
     atom   23 type  1   force =     0.00000476    0.30515246  -12.54310688
     atom   24 type  1   force =     0.00000437    0.57540661   13.07817392
     atom   25 type  1   force =     0.00000464    0.17249739  -11.06733250
     atom   26 type  1   force =     0.00000458   -0.24996270   -8.28117798
     atom   27 type  1   force =     0.00000441    0.51071856  -11.84742344
     atom   28 type  1   force =     0.00000440    0.10012151   -7.36826953
     atom   29 type  1   force =     0.00000441   -0.37246851   -9.51019009
     atom   30 type  1   force =     0.00000441    0.03287326   -5.18878308
     atom   31 type  1   force =     0.00000441    0.04716955   -0.58755787
     atom   32 type  1   force =     0.00000441    0.09826661    3.73987691
     atom   33 type  1   force =     0.00000441   -0.06388402   -2.79680568
     atom   34 type  1   force =     0.00000441   -0.05010665    1.87243256
     atom   35 type  1   force =     0.00000499   -0.19629993    6.29807232
     atom   36 type  1   force =     0.00000441   -0.17250189   11.06732572
     atom   37 type  1   force =     0.00000441    0.24995836    8.28119603
     atom   38 type  1   force =     0.00000442   -0.30515012   12.54311106
     atom   39 type  1   force =     0.00000442   -0.57540633  -13.07817511
     atom   40 type  1   force =     0.00000450    0.19631533   -6.29807112
     atom   41 type  1   force =     0.00000450    0.05010146   -1.87242727
     atom   42 type  1   force =     0.00000438   -0.09827081   -3.73988214
     atom   43 type  1   force =     0.00000484   -0.04715700    0.58755153
     atom   44 type  1   force =     0.00000477   -0.03287120    5.18877152
     atom   45 type  1   force =     0.00000454    0.37245929    9.51017019
     atom   46 type  1   force =     0.00000470    0.06387387    2.79682961
     atom   47 type  1   force =     0.00000458   -0.10012304    7.36827887
     atom   48 type  1   force =     0.00000495   -0.51071098   11.84742830
     atom   49 type  1   force =     0.00000465    0.30515305  -12.54310688
     atom   50 type  1   force =     0.00000448    0.57540603   13.07817392
     atom   51 type  1   force =     0.00000476    0.17249739  -11.06733250
     atom   52 type  1   force =     0.00000423   -0.24996270   -8.28117798
     The core correction contribution to forces
     atom    1 type  1   force =     0.00000000    0.00000000    0.00000000
     atom    2 type  1   force =     0.00000000    0.00000000    0.00000000
     atom    3 type  1   force =     0.00000000    0.00000000    0.00000000
     atom    4 type  1   force =     0.00000000    0.00000000    0.00000000
     atom    5 type  1   force =     0.00000000    0.00000000    0.00000000
     atom    6 type  1   force =     0.00000000    0.00000000    0.00000000
     atom    7 type  1   force =     0.00000000    0.00000000    0.00000000
     atom    8 type  1   force =     0.00000000    0.00000000    0.00000000
     atom    9 type  1   force =     0.00000000    0.00000000    0.00000000
     atom   10 type  1   force =     0.00000000    0.00000000    0.00000000
     atom   11 type  1   force =     0.00000000    0.00000000    0.00000000
     atom   12 type  1   force =     0.00000000    0.00000000    0.00000000
     atom   13 type  1   force =     0.00000000    0.00000000    0.00000000
     atom   14 type  1   force =     0.00000000    0.00000000    0.00000000
     atom   15 type  1   force =     0.00000000    0.00000000    0.00000000
     atom   16 type  1   force =     0.00000000    0.00000000    0.00000000
     atom   17 type  1   force =     0.00000000    0.00000000    0.00000000
     atom   18 type  1   force =     0.00000000    0.00000000    0.00000000
     atom   19 type  1   force =     0.00000000    0.00000000    0.00000000
     atom   20 type  1   force =     0.00000000    0.00000000    0.00000000
     atom   21 type  1   force =     0.00000000    0.00000000    0.00000000
     atom   22 type  1   force =     0.00000000    0.00000000    0.00000000
     atom   23 type  1   force =     0.00000000    0.00000000    0.00000000
     atom   24 type  1   force =     0.00000000    0.00000000    0.00000000
     atom   25 type  1   force =     0.00000000    0.00000000    0.00000000
     atom   26 type  1   force =     0.00000000    0.00000000    0.00000000
     atom   27 type  1   force =     0.00000000    0.00000000    0.00000000
     atom   28 type  1   force =     0.00000000    0.00000000    0.00000000
     atom   29 type  1   force =     0.00000000    0.00000000    0.00000000
     atom   30 type  1   force =     0.00000000    0.00000000    0.00000000
     atom   31 type  1   force =     0.00000000    0.00000000    0.00000000
     atom   32 type  1   force =     0.00000000    0.00000000    0.00000000
     atom   33 type  1   force =     0.00000000    0.00000000    0.00000000
     atom   34 type  1   force =     0.00000000    0.00000000    0.00000000
     atom   35 type  1   force =     0.00000000    0.00000000    0.00000000
     atom   36 type  1   force =     0.00000000    0.00000000    0.00000000
     atom   37 type  1   force =     0.00000000    0.00000000    0.00000000
     atom   38 type  1   force =     0.00000000    0.00000000    0.00000000
     atom   39 type  1   force =     0.00000000    0.00000000    0.00000000
     atom   40 type  1   force =     0.00000000    0.00000000    0.00000000
     atom   41 type  1   force =     0.00000000    0.00000000    0.00000000
     atom   42 type  1   force =     0.00000000    0.00000000    0.00000000
     atom   43 type  1   force =     0.00000000    0.00000000    0.00000000
     atom   44 type  1   force =     0.00000000    0.00000000    0.00000000
     atom   45 type  1   force =     0.00000000    0.00000000    0.00000000
     atom   46 type  1   force =     0.00000000    0.00000000    0.00000000
     atom   47 type  1   force =     0.00000000    0.00000000    0.00000000
     atom   48 type  1   force =     0.00000000    0.00000000    0.00000000
     atom   49 type  1   force =     0.00000000    0.00000000    0.00000000
     atom   50 type  1   force =     0.00000000    0.00000000    0.00000000
     atom   51 type  1   force =     0.00000000    0.00000000    0.00000000
     atom   52 type  1   force =     0.00000000    0.00000000    0.00000000
     The Hubbard contrib.    to forces
     atom    1 type  1   force =     0.00000000    0.00000000    0.00000000
     atom    2 type  1   force =     0.00000000    0.00000000    0.00000000
     atom    3 type  1   force =     0.00000000    0.00000000    0.00000000
     atom    4 type  1   force =     0.00000000    0.00000000    0.00000000
     atom    5 type  1   force =     0.00000000    0.00000000    0.00000000
     atom    6 type  1   force =     0.00000000    0.00000000    0.00000000
     atom    7 type  1   force =     0.00000000    0.00000000    0.00000000
     atom    8 type  1   force =     0.00000000    0.00000000    0.00000000
     atom    9 type  1   force =     0.00000000    0.00000000    0.00000000
     atom   10 type  1   force =     0.00000000    0.00000000    0.00000000
     atom   11 type  1   force =     0.00000000    0.00000000    0.00000000
     atom   12 type  1   force =     0.00000000    0.00000000    0.00000000
     atom   13 type  1   force =     0.00000000    0.00000000    0.00000000
     atom   14 type  1   force =     0.00000000    0.00000000    0.00000000
     atom   15 type  1   force =     0.00000000    0.00000000    0.00000000
     atom   16 type  1   force =     0.00000000    0.00000000    0.00000000
     atom   17 type  1   force =     0.00000000    0.00000000    0.00000000
     atom   18 type  1   force =     0.00000000    0.00000000    0.00000000
     atom   19 type  1   force =     0.00000000    0.00000000    0.00000000
     atom   20 type  1   force =     0.00000000    0.00000000    0.00000000
     atom   21 type  1   force =     0.00000000    0.00000000    0.00000000
     atom   22 type  1   force =     0.00000000    0.00000000    0.00000000
     atom   23 type  1   force =     0.00000000    0.00000000    0.00000000
     atom   24 type  1   force =     0.00000000    0.00000000    0.00000000
     atom   25 type  1   force =     0.00000000    0.00000000    0.00000000
     atom   26 type  1   force =     0.00000000    0.00000000    0.00000000
     atom   27 type  1   force =     0.00000000    0.00000000    0.00000000
     atom   28 type  1   force =     0.00000000    0.00000000    0.00000000
     atom   29 type  1   force =     0.00000000    0.00000000    0.00000000
     atom   30 type  1   force =     0.00000000    0.00000000    0.00000000
     atom   31 type  1   force =     0.00000000    0.00000000    0.00000000
     atom   32 type  1   force =     0.00000000    0.00000000    0.00000000
     atom   33 type  1   force =     0.00000000    0.00000000    0.00000000
     atom   34 type  1   force =     0.00000000    0.00000000    0.00000000
     atom   35 type  1   force =     0.00000000    0.00000000    0.00000000
     atom   36 type  1   force =     0.00000000    0.00000000    0.00000000
     atom   37 type  1   force =     0.00000000    0.00000000    0.00000000
     atom   38 type  1   force =     0.00000000    0.00000000    0.00000000
     atom   39 type  1   force =     0.00000000    0.00000000    0.00000000
     atom   40 type  1   force =     0.00000000    0.00000000    0.00000000
     atom   41 type  1   force =     0.00000000    0.00000000    0.00000000
     atom   42 type  1   force =     0.00000000    0.00000000    0.00000000
     atom   43 type  1   force =     0.00000000    0.00000000    0.00000000
     atom   44 type  1   force =     0.00000000    0.00000000    0.00000000
     atom   45 type  1   force =     0.00000000    0.00000000    0.00000000
     atom   46 type  1   force =     0.00000000    0.00000000    0.00000000
     atom   47 type  1   force =     0.00000000    0.00000000    0.00000000
     atom   48 type  1   force =     0.00000000    0.00000000    0.00000000
     atom   49 type  1   force =     0.00000000    0.00000000    0.00000000
     atom   50 type  1   force =     0.00000000    0.00000000    0.00000000
     atom   51 type  1   force =     0.00000000    0.00000000    0.00000000
     atom   52 type  1   force =     0.00000000    0.00000000    0.00000000
     The SCF correction term to forces
     atom    1 type  1   force =    -0.00000000    0.00000000    0.00000001
     atom    2 type  1   force =    -0.00000000    0.00000002    0.00000000
     atom    3 type  1   force =     0.00000000   -0.00000001    0.00000001
     atom    4 type  1   force =    -0.00000000    0.00000000   -0.00000000
     atom    5 type  1   force =     0.00000000    0.00000001    0.00000000
     atom    6 type  1   force =     0.00000000    0.00000001   -0.00000000
     atom    7 type  1   force =     0.00000000   -0.00000000    0.00000001
     atom    8 type  1   force =    -0.00000000   -0.00000001   -0.00000001
     atom    9 type  1   force =    -0.00000000   -0.00000000   -0.00000000
     atom   10 type  1   force =     0.00000000    0.00000000   -0.00000001
     atom   11 type  1   force =     0.00000000   -0.00000001    0.00000001
     atom   12 type  1   force =     0.00000000   -0.00000000   -0.00000001
     atom   13 type  1   force =     0.00000000   -0.00000001   -0.00000001
     atom   14 type  1   force =    -0.00000000    0.00000001    0.00000001
     atom   15 type  1   force =    -0.00000000    0.00000001    0.00000001
     atom   16 type  1   force =     0.00000000   -0.00000001    0.00000000
     atom   17 type  1   force =    -0.00000000   -0.00000000   -0.00000000
     atom   18 type  1   force =    -0.00000000    0.00000001   -0.00000001
     atom   19 type  1   force =    -0.00000000    0.00000000   -0.00000001
     atom   20 type  1   force =     0.00000000   -0.00000000   -0.00000001
     atom   21 type  1   force =    -0.00000000   -0.00000001   -0.00000001
     atom   22 type  1   force =     0.00000000   -0.00000000   -0.00000001
     atom   23 type  1   force =    -0.00000000    0.00000001    0.00000001
     atom   24 type  1   force =     0.00000000    0.00000001    0.00000000
     atom   25 type  1   force =     0.00000000   -0.00000001    0.00000001
     atom   26 type  1   force =     0.00000000    0.00000000   -0.00000001
     atom   27 type  1   force =     0.00000000    0.00000001    0.00000002
     atom   28 type  1   force =    -0.00000000    0.00000002    0.00000000
     atom   29 type  1   force =     0.00000000   -0.00000002    0.00000001
     atom   30 type  1   force =     0.00000000   -0.00000001    0.00000001
     atom   31 type  1   force =     0.00000000    0.00000000    0.00000000
     atom   32 type  1   force =    -0.00000000    0.00000001    0.00000000
     atom   33 type  1   force =    -0.00000000   -0.00000000    0.00000001
     atom   34 type  1   force =    -0.00000000   -0.00000001   -0.00000001
     atom   35 type  1   force =     0.00000000   -0.00000000   -0.00000001
     atom   36 type  1   force =    -0.00000000    0.00000000   -0.00000001
     atom   37 type  1   force =    -0.00000000   -0.00000001    0.00000001
     atom   38 type  1   force =     0.00000000   -0.00000001   -0.00000001
     atom   39 type  1   force =     0.00000000   -0.00000001   -0.00000001
     atom   40 type  1   force =     0.00000000    0.00000001    0.00000001
     atom   41 type  1   force =     0.00000000    0.00000001    0.00000001
     atom   42 type  1   force =    -0.00000000   -0.00000001    0.00000000
     atom   43 type  1   force =     0.00000000   -0.00000000   -0.00000000
     atom   44 type  1   force =     0.00000000    0.00000001   -0.00000001
     atom   45 type  1   force =     0.00000000    0.00000000   -0.00000001
     atom   46 type  1   force =    -0.00000000   -0.00000000   -0.00000001
     atom   47 type  1   force =     0.00000000   -0.00000001   -0.00000001
     atom   48 type  1   force =    -0.00000000   -0.00000000   -0.00000001
     atom   49 type  1   force =     0.00000000    0.00000001    0.00000001
     atom   50 type  1   force =    -0.00000000    0.00000001    0.00000000
     atom   51 type  1   force =    -0.00000000   -0.00000001    0.00000001
     atom   52 type  1   force =    -0.00000000    0.00000000   -0.00000001

     Total force =     0.000305     Total SCF correction =     0.000000
     Message from routine punch:
     Nothing written, as per user request (disk_io='none')

     General routines

     Parallel routines

     PAW routines

     Environ routines

   This run was terminated on:  18:41: 2  28Dec2024

   JOB DONE.