     Program PWSCF v.7.4 starts on 20Jan2025 at  4:23:51

     Reading input from espresso.pwi
Warning: card &CELL ignored
Warning: card    PRESS_CONV_THR   = 0.1 ignored
Warning: card    CELL_DOFREE      = 'ALL' ignored
Warning: card / ignored
Warning: card &FCP ignored
Warning: card / ignored
Warning: card &RISM ignored
Warning: card / ignored

     Current dimensions of program PWSCF are:
     Max number of different atomic species (ntypx) = 10
     Max number of k-points (npk) =  40000
     Max angular momentum in pseudopotentials (lmaxx) =  4

     IMPORTANT: XC functional enforced from input :
     Exchange-correlation= PBE
                           (   1   4   3   4   0   0   0)
     Any further DFT definition will be discarded
     Please, verify this is what you really want

     Reading input from environ.in:
     * using ionic solvent mode
     * setting boundary derivatives method to SSCS default
     * setting electrolyte-boundary derivatives method to SSCS default

Environ Warning (1001): card EOF ignored

     K-points division:     npool     =       2
     R & G space division:  proc/nbgrp/npool/nimage =     192
     Subspace diagonalization in iterative solution of the eigenvalue problem:
     a serial algorithm will be used

     Using Slab Decomposition

     bravais-lattice index     =           14
     lattice parameter (alat)  =      11.2436  a.u.
     unit-cell volume          =   10615.2838 (a.u.)^3
     number of atoms/cell      =           16
     number of atomic types    =            1
     number of electrons       =        48.00
     number of Kohn-Sham states=           36
     kinetic-energy cutoff     =      80.0000  Ry
     charge density cutoff     =     800.0000  Ry
     scf convergence threshold =      1.0E-16
     mixing beta               =       0.2000
     number of iterations used =            8  local-TF  mixing
     Exchange-correlation= PBE
                           (   1   4   3   4   0   0   0)

                                  Environ Setup Summary

          O. Andreussi, I. Dabo and N. Marzari, J. Chem. Phys. 136, 064102 (2012)
          F. Nattino, M. Truscott, N. Marzari, and O. Andreussi, J. Chem. Phys. 150, 041722 (2019)

     in publications or presentations arising from this work.

     Parameters

     compensation onset threshold      =               0.1000E+00
     static permittivity               =                    89.90
     surface tension in input (dyn/cm) =                    37.30
     surface tension in internal units =               0.4792E-04

     Solvent Boundary

     solvent mode                      =                    ionic
     derivatives method                =                   lowmem
     electrolyte derivatives method    =                   lowmem
     numerical core for derivatives    =                      fft
     switching function adopted        =                     SCCS
     density limit for vacuum region   =               0.5000E-02
     density limit for bulk solvent    =               0.1000E-03
     soft-sphere radius mode           =                    bondi
     soft-sphere softness              =                     0.50
     alpha                             =                     1.32

     Electrostatic Setup

     electrostatic problem to solve    =                    modpb
     numerical solver adopted          =                   newton
     type of auxiliary density adopted =                     none
     numerical core for poisson        =                      fft
     adopting a nested solver scheme
     inner solver                      =                       cg
     inner core                        =                      fft
     type of pbc corrections           =                parabolic
     numerical core for corrections    =                      1da

     >>>>> Grand-Canonical SCF is activated <<<<<
     Initial Total Charge  =     0.000000 e
     Target Fermi Energy   =    -4.904000 eV
     Thr. of Fermi Energy  =     0.001000 eV
     Wave-shift of Kerker  =     0.400000 bohr^-1
     Wave-shift of Hartree =     1.500000 bohr^-1
     Mixing Rate of Fermi  =     0.050000

     celldm(1)=  11.243615  celldm(2)=   1.000000  celldm(3)=   7.921182
     celldm(4)=   0.000000  celldm(5)=   0.000000  celldm(6)=  -0.333333

     crystal axes: (cart. coord. in units of alat)
               a(1) = (   1.000000   0.000000   0.000000 )
               a(2) = (  -0.333333   0.942809   0.000000 )
               a(3) = (   0.000000   0.000000   7.921182 )

     reciprocal axes: (cart. coord. in units 2 pi/alat)
               b(1) = (  1.000000  0.353553 -0.000000 )
               b(2) = (  0.000000  1.060660  0.000000 )
               b(3) = (  0.000000 -0.000000  0.126244 )

     PseudoPot. # 1 for Li read from file:
     /work/e89/e89/ba3g18/Repos/Pseudopotentials/Pslibrary/Li.pbe-sl-kjpaw_psl.1.0.0.UPF
     MD5 check sum: 3f4d2cafebb47c6c3aa8ed472e6f074d
     Pseudo is Projector augmented-wave, Zval =  3.0
     Generated using 'atomic' code by A. Dal Corso  v.7.4
     Shape of augmentation charge: PSQ
     Using radial grid of 1017 points,  4 beta functions with:
                l(1) =   0
                l(2) =   0
                l(3) =   1
                l(4) =   1
     Q(r) pseudized with 0 coefficients

     atomic species   valence    mass     pseudopotential
     Li                3.00     6.94000     Li( 1.00)

      2 Sym. Ops. (no inversion) found

                                    s                        frac. trans.

      isym =  1     identity

 cryst.   s( 1) = (     1          0          0      )
                  (     0          1          0      )
                  (     0          0          1      )

 cart.    s( 1) = (  1.0000000 -0.0000000  0.0000000 )
                  (  0.0000000  1.0000000  0.0000000 )
                  (  0.0000000  0.0000000  1.0000000 )

      isym =  2     180 deg rotation - cart. axis [0,0,1]

 cryst.   s( 2) = (    -1          0          0      )
                  (     0         -1          0      )
                  (     0          0          1      )

 cart.    s( 2) = ( -1.0000000  0.0000000  0.0000000 )
                  (  0.0000000 -1.0000000  0.0000000 )
                  (  0.0000000  0.0000000  1.0000000 )

     point group C_2  (2)
     there are  2 classes
     the character table:

       E     C2
A      1.00  1.00
B      1.00 -1.00

     the symmetry operations in each class and the name of the first element:

     E        1
          identity
     C2       2
          180 deg rotation - cart. axis [0,0,1]

   Cartesian axes

     site n.     atom                  positions (alat units)
         1        Li     tau(   1) = (   0.1666639   0.2357028   3.3536902  )
         2        Li     tau(   2) = (   0.3333333   0.4714046   3.7508721  )
         3        Li     tau(   3) = (   0.1666694   0.2356996   4.1703897  )
         4        Li     tau(   4) = (   0.3333333   0.4714046   4.5673916  )
         5        Li     tau(   5) = (   0.0000010   0.7071081   3.3537094  )
         6        Li     tau(   6) = (   0.1666667   0.9428090   3.7508870  )
         7        Li     tau(   7) = (  -0.0000055   0.7071001   4.1704001  )
         8        Li     tau(   8) = (   0.1666667   0.9428090   4.5674038  )
         9        Li     tau(   9) = (   0.6666657   0.2357009   3.3537094  )
        10        Li     tau(  10) = (   0.8333333   0.4714046   3.7508793  )
        11        Li     tau(  11) = (   0.6666722   0.2357090   4.1704001  )
        12        Li     tau(  12) = (   0.8333333   0.4714046   4.5674163  )
        13        Li     tau(  13) = (   0.5000028   0.7071062   3.3536902  )
        14        Li     tau(  14) = (   0.6666667   0.9428090   3.7508713  )
        15        Li     tau(  15) = (   0.4999973   0.7071095   4.1703897  )
        16        Li     tau(  16) = (   0.6666667   0.9428090   4.5673975  )

   Crystallographic axes

     site n.     atom                  positions (cryst. coord.)
         1        Li     tau(   1) = (  0.2499973  0.2500006  0.4233825  )
         2        Li     tau(   2) = (  0.4999999  0.5000001  0.4735243  )
         3        Li     tau(   3) = (  0.2500017  0.2499972  0.5264858  )
         4        Li     tau(   4) = (  0.4999999  0.5000001  0.5766048  )
         5        Li     tau(   5) = (  0.2500012  0.7500015  0.4233850  )
         6        Li     tau(   6) = (  0.4999997  1.0000001  0.4735262  )
         7        Li     tau(   7) = (  0.2499919  0.7499929  0.5264871  )
         8        Li     tau(   8) = (  0.4999997  1.0000000  0.5766063  )
         9        Li     tau(   9) = (  0.7499985  0.2499986  0.4233850  )
        10        Li     tau(  10) = (  0.9999999  0.5000001  0.4735252  )
        11        Li     tau(  11) = (  0.7500078  0.2500072  0.5264871  )
        12        Li     tau(  12) = (  0.9999999  0.5000001  0.5766079  )
        13        Li     tau(  13) = (  0.7500024  0.7499995  0.4233825  )
        14        Li     tau(  14) = (  0.9999997  1.0000000  0.4735242  )
        15        Li     tau(  15) = (  0.7499980  0.7500029  0.5264858  )
        16        Li     tau(  16) = (  0.9999997  1.0000000  0.5766055  )

     number of k points=    61  Marzari-Vanderbilt smearing, width (Ry)=  0.0100
                       cart. coord. in units 2pi/alat
        k(    1) = (   0.0000000   0.0000000   0.0000000), wk =   0.0165289
        k(    2) = (   0.0000000   0.0964237   0.0000000), wk =   0.0330579
        k(    3) = (   0.0000000   0.1928473   0.0000000), wk =   0.0330579
        k(    4) = (   0.0000000   0.2892710   0.0000000), wk =   0.0330579
        k(    5) = (   0.0000000   0.3856946   0.0000000), wk =   0.0330579
        k(    6) = (   0.0000000   0.4821183   0.0000000), wk =   0.0330579
        k(    7) = (   0.0909091   0.0321412   0.0000000), wk =   0.0330579
        k(    8) = (   0.0909091   0.1285648   0.0000000), wk =   0.0330579
        k(    9) = (   0.0909091   0.2249885   0.0000000), wk =   0.0330579
        k(   10) = (   0.0909091   0.3214122   0.0000000), wk =   0.0330579
        k(   11) = (   0.0909091   0.4178358   0.0000000), wk =   0.0330579
        k(   12) = (   0.0909091   0.5142595   0.0000000), wk =   0.0330579
        k(   13) = (   0.0909091  -0.4499771   0.0000000), wk =   0.0330579
        k(   14) = (   0.0909091  -0.3535534   0.0000000), wk =   0.0330579
        k(   15) = (   0.0909091  -0.2571298   0.0000000), wk =   0.0330579
        k(   16) = (   0.0909091  -0.1607061   0.0000000), wk =   0.0330579
        k(   17) = (   0.0909091  -0.0642825   0.0000000), wk =   0.0330579
        k(   18) = (   0.1818182   0.0642824   0.0000000), wk =   0.0330579
        k(   19) = (   0.1818182   0.1607060   0.0000000), wk =   0.0330579
        k(   20) = (   0.1818182   0.2571297   0.0000000), wk =   0.0330579
        k(   21) = (   0.1818182   0.3535533   0.0000000), wk =   0.0330579
        k(   22) = (   0.1818182   0.4499770   0.0000000), wk =   0.0330579
        k(   23) = (   0.1818182   0.5464007   0.0000000), wk =   0.0330579
        k(   24) = (   0.1818182  -0.4178359   0.0000000), wk =   0.0330579
[...]
        k(   51) = (   0.4545455  -0.0000000   0.0000000), wk =   0.0330579
        k(   52) = (   0.4545455   0.0909091   0.0000000), wk =   0.0330579
        k(   53) = (   0.4545455   0.1818182   0.0000000), wk =   0.0330579
        k(   54) = (   0.4545455   0.2727273   0.0000000), wk =   0.0330579
        k(   55) = (   0.4545455   0.3636364   0.0000000), wk =   0.0330579
        k(   56) = (   0.4545455   0.4545455   0.0000000), wk =   0.0330579
        k(   57) = (   0.4545455  -0.4545455   0.0000000), wk =   0.0330579
        k(   58) = (   0.4545455  -0.3636364   0.0000000), wk =   0.0330579
        k(   59) = (   0.4545455  -0.2727273   0.0000000), wk =   0.0330579
        k(   60) = (   0.4545455  -0.1818182   0.0000000), wk =   0.0330579
        k(   61) = (   0.4545455  -0.0909091   0.0000000), wk =   0.0330579

     Initial potential from superposition of free atoms

     starting charge      47.9263, renormalised to      48.0000

     negative rho (up, down):  1.953E-03 0.000E+00
     Starting wfcs are random
     Checking if some PAW data can be deallocated...

     Self-consistent Calculation

     iteration #  1     ecut=    80.00 Ry     beta= 0.20
     Davidson diagonalization with overlap

     c_bands:  3 eigenvalues not converged
     c_bands:  1 eigenvalues not converged
     c_bands:  1 eigenvalues not converged
     c_bands:  1 eigenvalues not converged
     c_bands:  1 eigenvalues not converged
     c_bands:  1 eigenvalues not converged
     c_bands:  2 eigenvalues not converged
     c_bands:  1 eigenvalues not converged
     ethr =  1.00E-12,  avg # of iterations =147.9

     negative rho (up, down):  1.470E-03 0.000E+00

     add environment contribution to local potential

     total energy              =    -240.60477740 Ry
     estimated scf accuracy    <       0.06013775 Ry

     total charge of GC-SCF    =       0.03907524 e
     the Fermi energy          =      -4.72821079 eV
                        (error :       0.17578921 eV)
     electrostatic embedding   =       0.00000000 Ry
     cavitation energy         =       0.01235683 Ry
     electrolyte free energy   =       0.00456895 Ry
     correction to one-el term =      -0.00000000 Ry

[...]

     ethr =  1.00E-05,  avg # of iterations = 13.5

[...]

     ethr =  4.30E-13,  avg # of iterations = 12.8

[...]

     c_bands:  1 eigenvalues not converged
     ethr =  2.65E-13,  avg # of iterations = 18.5

[...]

     add environment contribution to local potential

     total energy              =    -240.72283507 Ry
     estimated scf accuracy    <          1.6E-16 Ry

     total charge of GC-SCF    =       1.71849234 e
     the Fermi energy          =      -4.90399977 eV
                        (error :       0.00000023 eV)
     electrostatic embedding   =      -0.93270606 Ry
     cavitation energy         =       0.01235683 Ry
     electrolyte free energy   =      -0.01310464 Ry
     correction to one-el term =     -48.63403581 Ry

     iteration # 54     ecut=    80.00 Ry     beta= 0.20
     Davidson diagonalization with overlap

     c_bands:  1 eigenvalues not converged
     c_bands:  1 eigenvalues not converged
     c_bands:  1 eigenvalues not converged
     ethr =  1.00E-13,  avg # of iterations = 12.7

     negative rho (up, down):  2.654E-04 0.000E+00

     End of self-consistent calculation

          k = 0.0000 0.0000 0.0000 (128001 PWs)   bands (ev):

   -52.1100 -52.1093 -52.1006 -52.1006 -52.0999 -52.0999 -52.0942 -52.0935
   -51.3669 -51.3590 -51.3537 -51.3537 -51.3531 -51.3531 -51.3494 -51.3441
    -8.2436  -7.6041  -6.2843  -4.8025  -4.8025  -4.8022  -4.8022  -4.4633
    -4.4633  -4.4631  -4.4631  -4.3943  -4.0481  -3.6882  -3.3529  -2.1276
    -1.5260  -1.2608  -1.2608  -1.2604

     occupation numbers
     1.0000   1.0000   1.0000   1.0000   1.0000   1.0000   1.0000   1.0000
     1.0000   1.0000   1.0000   1.0000   1.0000   1.0000   1.0000   1.0000
     1.0000   1.0000   1.0000   0.0682   0.0682   0.0678   0.0678   0.0000
     0.0000   0.0000   0.0000   0.0000   0.0000   0.0000   0.0000   0.0000
     0.0000   0.0000   0.0000   0.0000

[...]

          k = 0.4545 0.0643 0.0000 (128255 PWs)   bands (ev):

   -52.1060 -52.1053 -52.1042 -52.1036 -52.0978 -52.0973 -52.0971 -52.0966
   -51.3621 -51.3594 -51.3557 -51.3548 -51.3523 -51.3518 -51.3492 -51.3476
    -7.5770  -7.0370  -6.9414  -6.4165  -5.6080  -5.4401  -5.1061  -4.8125
    -4.4851  -4.0112  -3.5630  -3.5001  -3.4708  -3.4619  -3.1531  -2.5337
    -2.0666  -1.8851  -1.1860  -0.9185

     occupation numbers
     1.0000   1.0000   1.0000   1.0000   1.0000   1.0000   1.0000   1.0000
     1.0000   1.0000   1.0000   1.0000   1.0000   1.0000   1.0000   1.0000
     1.0000   1.0000   1.0000   1.0000   1.0000   1.0000   1.0822   0.0850
     0.0000   0.0000   0.0000   0.0000   0.0000   0.0000   0.0000   0.0000
     0.0000   0.0000   0.0000   0.0000

     the Fermi energy is    -4.9040 ev

!    total energy              =    -240.72283507 Ry
     total all-electron energy =      -240.722965 Ry
     estimated scf accuracy    <          9.2E-17 Ry

!    total charge of GC-SCF    =       1.71849238 e
     smearing contrib. (-TS)   =       0.00030672 Ry
     internal energy E=F+TS    =    -240.72314179 Ry

     The total energy is F=E-TS. E is the sum of the following terms:
     one-electron contribution =   -2364.38323848 Ry
     hartree contribution      =    1152.20469178 Ry
     xc contribution           =     -56.76927506 Ry
     ewald contribution        =    1076.99905161 Ry
     one-center paw contrib.   =       1.41252848 Ry
      -> PAW hartree energy AE =       7.32451397 Ry
      -> PAW hartree energy PS =      -7.10157633 Ry
      -> PAW xc energy AE      =      -3.46764328 Ry
      -> PAW xc energy PS      =       3.33301521 Ry
      -> total E_H with PAW    =    1152.42762942 Ry
      -> total E_XC with PAW   =     -56.90390313 Ry
     pot.stat. contrib. (-muN) =      -0.61940884 Ry
     electrostatic embedding   =      -0.93270612 Ry
     cavitation energy         =       0.01235683 Ry
     electrolyte free energy   =      -0.01310464 Ry
     correction to one-el term =     -48.63403733 Ry

     WARNING: you are using the parabolic pbc correction;
              the potential shift above must be added to
              band and Fermi energies.

     convergence has been achieved in  54 iterations
     The dielectric solvent contribution to forces
     atom    1 type  1   force =     0.00000022    0.00000009   -0.05301504
     atom    2 type  1   force =    -0.00000000   -0.00000000   -0.02653556
     atom    3 type  1   force =     0.00000011   -0.00000002    0.02650318
     atom    4 type  1   force =     0.00000000    0.00000001    0.05297942
     atom    5 type  1   force =     0.00000020    0.00000004   -0.05301978
     atom    6 type  1   force =     0.00000000   -0.00000000   -0.02653387
     atom    7 type  1   force =     0.00000012    0.00000011    0.02650432
     atom    8 type  1   force =     0.00000000   -0.00000001    0.05297639
     atom    9 type  1   force =    -0.00000020   -0.00000004   -0.05301978
     atom   10 type  1   force =     0.00000000   -0.00000000   -0.02653484
     atom   11 type  1   force =    -0.00000012   -0.00000011    0.02650431
     atom   12 type  1   force =    -0.00000000    0.00000001    0.05297332
     atom   13 type  1   force =    -0.00000022   -0.00000009   -0.05301504
     atom   14 type  1   force =     0.00000000    0.00000000   -0.02653560
     atom   15 type  1   force =    -0.00000011    0.00000002    0.02650318
     atom   16 type  1   force =    -0.00000000   -0.00000001    0.05297796

     Forces acting on atoms (cartesian axes, Ry/au):

     atom    1 type  1   force =     0.00000046    0.00000014   -0.00051796
     atom    2 type  1   force =     0.00000000    0.00000000   -0.00016204
     atom    3 type  1   force =     0.00000042   -0.00000040    0.00012540
     atom    4 type  1   force =     0.00000000    0.00000000    0.00055374
     atom    5 type  1   force =     0.00000042    0.00000007   -0.00051732
     atom    6 type  1   force =     0.00000000    0.00000000   -0.00016194
     atom    7 type  1   force =     0.00000064    0.00000057    0.00012571
     atom    8 type  1   force =     0.00000000    0.00000000    0.00055394
     atom    9 type  1   force =    -0.00000042   -0.00000007   -0.00051732
     atom   10 type  1   force =     0.00000000    0.00000000   -0.00016098
     atom   11 type  1   force =    -0.00000064   -0.00000057    0.00012571
     atom   12 type  1   force =     0.00000000    0.00000000    0.00055433
     atom   13 type  1   force =    -0.00000046   -0.00000014   -0.00051796
     atom   14 type  1   force =     0.00000000    0.00000000   -0.00016187
     atom   15 type  1   force =    -0.00000042    0.00000040    0.00012540
     atom   16 type  1   force =     0.00000000    0.00000000    0.00055315
     The non-local contrib.  to forces
     atom    1 type  1   force =     0.00000138    0.00000012   -0.08806596
     atom    2 type  1   force =     0.00000000    0.00000000    0.00551194
     atom    3 type  1   force =     0.00000077   -0.00000054   -0.00555995
     atom    4 type  1   force =     0.00000000    0.00000000    0.08808239
     atom    5 type  1   force =     0.00000139    0.00000083   -0.08806190
     atom    6 type  1   force =     0.00000000    0.00000000    0.00550976
     atom    7 type  1   force =     0.00000007    0.00000090   -0.00556141
     atom    8 type  1   force =     0.00000000    0.00000000    0.08808496
     atom    9 type  1   force =    -0.00000139   -0.00000083   -0.08806190
     atom   10 type  1   force =     0.00000000    0.00000000    0.00551052
     atom   11 type  1   force =    -0.00000007   -0.00000090   -0.00556141
     atom   12 type  1   force =     0.00000000    0.00000000    0.08808804
     atom   13 type  1   force =    -0.00000138   -0.00000012   -0.08806596
     atom   14 type  1   force =     0.00000000    0.00000000    0.00551173
     atom   15 type  1   force =    -0.00000077    0.00000054   -0.00555995
     atom   16 type  1   force =     0.00000000    0.00000000    0.08808364
     The ionic contribution  to forces
     atom    1 type  1   force =     0.00001501    0.00000265   -9.00238665
     atom    2 type  1   force =    -0.00000006   -0.00000006   -3.00636642
     atom    3 type  1   force =     0.00001111   -0.00000910    3.00599972
     atom    4 type  1   force =    -0.00000005   -0.00000011    9.00235367
     atom    5 type  1   force =     0.00001432    0.00000701   -9.00216201
     atom    6 type  1   force =     0.00000006    0.00000007   -3.00613910
     atom    7 type  1   force =     0.00001485    0.00001783    3.00615879
     atom    8 type  1   force =     0.00000004    0.00000012    9.00248995
     atom    9 type  1   force =    -0.00001435   -0.00000703   -9.00216181
     atom   10 type  1   force =    -0.00000001   -0.00000005   -3.00624852
     atom   11 type  1   force =    -0.00001489   -0.00001785    3.00615888
     atom   12 type  1   force =    -0.00000001   -0.00000011    9.00264686
     atom   13 type  1   force =    -0.00001504   -0.00000267   -9.00238682
     atom   14 type  1   force =     0.00000010    0.00000009   -3.00637115
     atom   15 type  1   force =    -0.00001116    0.00000908    3.00599961
     atom   16 type  1   force =     0.00000007    0.00000013    9.00241499
     The local contribution  to forces
     atom    1 type  1   force =     0.00003944   -0.00001326    9.14294883
     atom    2 type  1   force =     0.00005791   -0.00002187    3.02722795
     atom    3 type  1   force =     0.00004428   -0.00000042   -3.02681844
     atom    4 type  1   force =     0.00005733   -0.00002302   -9.14286178
     atom    5 type  1   force =     0.00004008   -0.00001835    9.14272805
     atom    6 type  1   force =     0.00010286   -0.00001644    3.02700124
     atom    7 type  1   force =     0.00004146   -0.00002795   -3.02697547
     atom    8 type  1   force =     0.00010404   -0.00001409   -9.14299740
     atom    9 type  1   force =     0.00007111   -0.00000271    9.14272443
     atom   10 type  1   force =     0.00005867   -0.00002129    3.02711181
     atom   11 type  1   force =     0.00007030    0.00000861   -3.02697668
     atom   12 type  1   force =     0.00005809   -0.00002244   -9.14315393
     atom   13 type  1   force =     0.00007175   -0.00000780    9.14295065
     atom   14 type  1   force =     0.00010362   -0.00001586    3.02723312
     atom   15 type  1   force =     0.00006747   -0.00001892   -3.02681662
     atom   16 type  1   force =     0.00010480   -0.00001292   -9.14292348
     The core correction contribution to forces
     atom    1 type  1   force =     0.00000000    0.00000000    0.00000000
     atom    2 type  1   force =     0.00000000    0.00000000    0.00000000
     atom    3 type  1   force =     0.00000000    0.00000000    0.00000000
     atom    4 type  1   force =     0.00000000    0.00000000    0.00000000
     atom    5 type  1   force =     0.00000000    0.00000000    0.00000000
     atom    6 type  1   force =     0.00000000    0.00000000    0.00000000
     atom    7 type  1   force =     0.00000000    0.00000000    0.00000000
     atom    8 type  1   force =     0.00000000    0.00000000    0.00000000
     atom    9 type  1   force =     0.00000000    0.00000000    0.00000000
     atom   10 type  1   force =     0.00000000    0.00000000    0.00000000
     atom   11 type  1   force =     0.00000000    0.00000000    0.00000000
     atom   12 type  1   force =     0.00000000    0.00000000    0.00000000
     atom   13 type  1   force =     0.00000000    0.00000000    0.00000000
     atom   14 type  1   force =     0.00000000    0.00000000    0.00000000
     atom   15 type  1   force =     0.00000000    0.00000000    0.00000000
     atom   16 type  1   force =     0.00000000    0.00000000    0.00000000
     The Hubbard contrib.    to forces
     atom    1 type  1   force =     0.00000000    0.00000000    0.00000000
     atom    2 type  1   force =     0.00000000    0.00000000    0.00000000
     atom    3 type  1   force =     0.00000000    0.00000000    0.00000000
     atom    4 type  1   force =     0.00000000    0.00000000    0.00000000
     atom    5 type  1   force =     0.00000000    0.00000000    0.00000000
     atom    6 type  1   force =     0.00000000    0.00000000    0.00000000
     atom    7 type  1   force =     0.00000000    0.00000000    0.00000000
     atom    8 type  1   force =     0.00000000    0.00000000    0.00000000
     atom    9 type  1   force =     0.00000000    0.00000000    0.00000000
     atom   10 type  1   force =     0.00000000    0.00000000    0.00000000
     atom   11 type  1   force =     0.00000000    0.00000000    0.00000000
     atom   12 type  1   force =     0.00000000    0.00000000    0.00000000
     atom   13 type  1   force =     0.00000000    0.00000000    0.00000000
     atom   14 type  1   force =     0.00000000    0.00000000    0.00000000
     atom   15 type  1   force =     0.00000000    0.00000000    0.00000000
     atom   16 type  1   force =     0.00000000    0.00000000    0.00000000
     The SCF correction term to forces
     atom    1 type  1   force =    -0.00000001   -0.00000000    0.00000001
     atom    2 type  1   force =    -0.00000000   -0.00000000    0.00000002
     atom    3 type  1   force =     0.00000000   -0.00000000    0.00000000
     atom    4 type  1   force =    -0.00000000    0.00000000    0.00000001
     atom    5 type  1   force =     0.00000001   -0.00000000   -0.00000000
     atom    6 type  1   force =    -0.00000000    0.00000000   -0.00000000
     atom    7 type  1   force =    -0.00000000   -0.00000000    0.00000001
     atom    8 type  1   force =     0.00000000    0.00000000    0.00000001
     atom    9 type  1   force =    -0.00000001    0.00000000   -0.00000000
     atom   10 type  1   force =    -0.00000000    0.00000000    0.00000001
     atom   11 type  1   force =     0.00000000    0.00000000    0.00000001
     atom   12 type  1   force =     0.00000000   -0.00000000    0.00000001
     atom   13 type  1   force =     0.00000001    0.00000000    0.00000001
     atom   14 type  1   force =     0.00000000   -0.00000000   -0.00000000
     atom   15 type  1   force =    -0.00000000    0.00000000    0.00000000
     atom   16 type  1   force =    -0.00000000   -0.00000000    0.00000001

     Total force =     0.001570     Total SCF correction =     0.000000

     Writing all to output data dir ./Li/Lithium.save/ :
     XML data file

     General routines

     Parallel routines

     PAW routines

     Environ routines

   This run was terminated on:   4:38:43  20Jan2025

   JOB DONE.