     Program PWSCF v.7.4 starts on  6Jan2025 at 18:44:44
        Git branch: develop
        Last git commit: e877ff360aceba4b8d76ffc2fb1c70545fc5dd57
        Last git commit date: Sat Jan 4 12:56:15 2025 +0000
        Last git commit subject: Merge branch 'orthoU' into 'develop'

     Reading input from espresso.pwi
Warning: card &CELL ignored
Warning: card    PRESS_CONV_THR   = 0.1 ignored
Warning: card    CELL_DOFREE      = 'ALL' ignored
Warning: card / ignored
Warning: card &FCP ignored
Warning: card / ignored
Warning: card &RISM ignored
Warning: card / ignored

     Current dimensions of program PWSCF are:
     Max number of different atomic species (ntypx) = 10
     Max number of k-points (npk) =  40000
     Max angular momentum in pseudopotentials (lmaxx) =  4

     IMPORTANT: XC functional enforced from input :
     Exchange-correlation= PBE
                           (   1   4   3   4   0   0   0)
     Any further DFT definition will be discarded
     Please, verify this is what you really want

     Reading input from environ.in:
     * using ionic solvent mode
     * setting boundary derivatives method to SSCS default
     * setting electrolyte-boundary derivatives method to SSCS default

Environ Warning (1001): card EOF ignored

     K-points division:     npool     =       2
     R & G space division:  proc/nbgrp/npool/nimage =     180
     Subspace diagonalization in iterative solution of the eigenvalue problem:
     a serial algorithm will be used

     Using Slab Decomposition

     bravais-lattice index     =            8
     lattice parameter (alat)  =      11.2436  a.u.
     unit-cell volume          =   18353.5537 (a.u.)^3
     number of atoms/cell      =           24
     number of atomic types    =            1
     number of electrons       =        72.00
     number of Kohn-Sham states=           54
     kinetic-energy cutoff     =      80.0000  Ry
     charge density cutoff     =     800.0000  Ry
     scf convergence threshold =      1.0E-06
     mixing beta               =       0.2000
     number of iterations used =            8  local-TF  mixing
     energy convergence thresh.=      1.0E-05
     force convergence thresh. =      3.9E-04
     Exchange-correlation= PBE
                           (   1   4   3   4   0   0   0)
     nstep                     =          999

                                  Environ Setup Summary

          O. Andreussi, I. Dabo and N. Marzari, J. Chem. Phys. 136, 064102 (2012)
          F. Nattino, M. Truscott, N. Marzari, and O. Andreussi, J. Chem. Phys. 150, 041722 (2019)

     in publications or presentations arising from this work.

     Parameters

     compensation onset threshold      =               0.1000E+00
     static permittivity               =                    89.90
     surface tension in input (dyn/cm) =                    37.30
     surface tension in internal units =               0.4792E-04

     Solvent Boundary

     solvent mode                      =                    ionic
     derivatives method                =                   lowmem
     electrolyte derivatives method    =                   lowmem
     numerical core for derivatives    =                      fft
     switching function adopted        =                     SCCS
     density limit for vacuum region   =               0.5000E-02
     density limit for bulk solvent    =               0.1000E-03
     soft-sphere radius mode           =                    bondi
     soft-sphere softness              =                     0.50
     alpha                             =                     1.32

     Electrostatic Setup

     electrostatic problem to solve    =                    modpb
     numerical solver adopted          =                   newton
     type of auxiliary density adopted =                     none
     numerical core for poisson        =                      fft
     adopting a nested solver scheme
     inner solver                      =                       cg
     inner core                        =                      fft
     type of pbc corrections           =                parabolic
     numerical core for corrections    =                      1da

     >>>>> Grand-Canonical SCF is activated <<<<<
     Initial Total Charge  =     0.000000 e
     Target Fermi Energy   =    -4.404000 eV
     Thr. of Fermi Energy  =     0.001000 eV
     Wave-shift of Kerker  =     0.400000 bohr^-1
     Wave-shift of Hartree =     1.500000 bohr^-1
     Mixing Rate of Fermi  =     0.050000

     celldm(1)=  11.243615  celldm(2)=   1.632993  celldm(3)=   7.907113
     celldm(4)=   0.000000  celldm(5)=   0.000000  celldm(6)=   0.000000

     crystal axes: (cart. coord. in units of alat)
               a(1) = (   1.000000   0.000000   0.000000 )
               a(2) = (   0.000000   1.632993   0.000000 )
               a(3) = (   0.000000   0.000000   7.907113 )

     reciprocal axes: (cart. coord. in units 2 pi/alat)
               b(1) = (  1.000000  0.000000  0.000000 )
               b(2) = (  0.000000  0.612372  0.000000 )
               b(3) = (  0.000000  0.000000  0.126468 )

     PseudoPot. # 1 for Li read from file:
     /home/mmm1182/Repos/Pseudopotentials/pslibrary/Li.pbe-sl-kjpaw_psl.1.0.0.UPF
     MD5 check sum: f40bb4162937df3f7c561f1969c76545
     Pseudo is Projector augmented-wave, Zval =  3.0
     Generated using 'atomic' code by A. Dal Corso  v.7.3.1
     Shape of augmentation charge: PSQ
     Using radial grid of 1017 points,  4 beta functions with:
                l(1) =   0
                l(2) =   0
                l(3) =   1
                l(4) =   1
     Q(r) pseudized with 0 coefficients

     atomic species   valence    mass     pseudopotential
     Li                3.00     6.94000     Li( 1.00)

      2 Sym. Ops. (no inversion) found

                                    s                        frac. trans.

      isym =  1     identity

 cryst.   s( 1) = (     1          0          0      )
                  (     0          1          0      )
                  (     0          0          1      )

 cart.    s( 1) = (  1.0000000  0.0000000  0.0000000 )
                  (  0.0000000  1.0000000  0.0000000 )
                  (  0.0000000  0.0000000  1.0000000 )

      isym =  2     inv. 180 deg rotation - cart. axis [0,1,0]

 cryst.   s( 2) = (     1          0          0      )
                  (     0         -1          0      )
                  (     0          0          1      )

 cart.    s( 2) = (  1.0000000  0.0000000  0.0000000 )
                  (  0.0000000 -1.0000000  0.0000000 )
                  (  0.0000000  0.0000000  1.0000000 )

     point group C_s (m)
     there are  2 classes
     the character table:

       E     s
A'     1.00  1.00
A''    1.00 -1.00

     the symmetry operations in each class and the name of the first element:

     E        1
          identity
     s        2
          inv. 180 deg rotation - cart. axis [0,1,0]

   Cartesian axes

     site n.     atom                  positions (alat units)
         1        Li     tau(   1) = (   0.5292707   0.8164966   4.5733543  )
         2        Li     tau(   2) = (   0.1373748   0.4082812   3.3337026  )
         3        Li     tau(   3) = (   0.3317419   0.8164966   3.6230168  )
         4        Li     tau(   4) = (   0.5351608   0.4082496   3.8117829  )
         5        Li     tau(   5) = (   0.1314428   0.8164966   4.0953911  )
         6        Li     tau(   6) = (   0.3350014   0.4082609   4.2841457  )
         7        Li     tau(   7) = (   0.5292110   1.6329931   4.5733485  )
         8        Li     tau(   8) = (   0.1373748   1.2247120   3.3337027  )
         9        Li     tau(   9) = (   0.3316668   1.6329931   3.6230166  )
        10        Li     tau(  10) = (   0.5351608   1.2247436   3.8117830  )
        11        Li     tau(  11) = (   0.1314649   1.6329931   4.0952746  )
        12        Li     tau(  12) = (   0.3350014   1.2247324   4.2841457  )
        13        Li     tau(  13) = (   1.0294751   0.8164966   4.5733361  )
        14        Li     tau(  14) = (   0.6372938   0.4082947   3.3336810  )
        15        Li     tau(  15) = (   0.8317283   0.8164966   3.6230261  )
        16        Li     tau(  16) = (   1.0351265   0.4081921   3.8117686  )
        17        Li     tau(  17) = (   0.6315159   0.8164966   4.0954071  )
        18        Li     tau(  18) = (   0.8348722   0.4082466   4.2841135  )
        19        Li     tau(  19) = (   1.0294592   1.6329931   4.5733891  )
        20        Li     tau(  20) = (   0.6372937   1.2246985   3.3336810  )
        21        Li     tau(  21) = (   0.8318063   1.6329931   3.6230396  )
        22        Li     tau(  22) = (   1.0351264   1.2248012   3.8117686  )
        23        Li     tau(  23) = (   0.6315589   1.6329931   4.0953298  )
        24        Li     tau(  24) = (   0.8348722   1.2247467   4.2841135  )

   Crystallographic axes

     site n.     atom                  positions (cryst. coord.)
         1        Li     tau(   1) = (  0.5292707  0.5000001  0.5783848  )
         2        Li     tau(   2) = (  0.1373748  0.2500202  0.4216081  )
         3        Li     tau(   3) = (  0.3317419  0.5000001  0.4581972  )
         4        Li     tau(   4) = (  0.5351608  0.2500009  0.4820701  )
         5        Li     tau(   5) = (  0.1314428  0.5000001  0.5179376  )
         6        Li     tau(   6) = (  0.3350014  0.2500077  0.5418091  )
         7        Li     tau(   7) = (  0.5292110  1.0000001  0.5783841  )
         8        Li     tau(   8) = (  0.1373748  0.7499800  0.4216081  )
         9        Li     tau(   9) = (  0.3316668  1.0000001  0.4581971  )
        10        Li     tau(  10) = (  0.5351608  0.7499993  0.4820701  )
        11        Li     tau(  11) = (  0.1314649  1.0000001  0.5179229  )
        12        Li     tau(  12) = (  0.3350014  0.7499924  0.5418091  )
        13        Li     tau(  13) = (  1.0294751  0.5000001  0.5783825  )
        14        Li     tau(  14) = (  0.6372938  0.2500285  0.4216053  )
        15        Li     tau(  15) = (  0.8317283  0.5000001  0.4581983  )
        16        Li     tau(  16) = (  1.0351265  0.2499656  0.4820683  )
        17        Li     tau(  17) = (  0.6315159  0.5000001  0.5179396  )
        18        Li     tau(  18) = (  0.8348722  0.2499990  0.5418050  )
        19        Li     tau(  19) = (  1.0294592  1.0000001  0.5783892  )
        20        Li     tau(  20) = (  0.6372937  0.7499717  0.4216053  )
        21        Li     tau(  21) = (  0.8318063  1.0000001  0.4582000  )
        22        Li     tau(  22) = (  1.0351264  0.7500346  0.4820683  )
        23        Li     tau(  23) = (  0.6315589  1.0000001  0.5179298  )
        24        Li     tau(  24) = (  0.8348722  0.7500012  0.5418050  )

     number of k points=    24  Marzari-Vanderbilt smearing, width (Ry)=  0.0100
                       cart. coord. in units 2pi/alat
        k(    1) = (   0.0000000   0.0000000   0.0000000), wk =   0.0259740
        k(    2) = (   0.0000000   0.0874818   0.0000000), wk =   0.0519481
        k(    3) = (   0.0000000   0.1749636   0.0000000), wk =   0.0519481
[...]
     atom    8 type  1   force =    -0.00009120    0.00000138    0.00767480
     atom    9 type  1   force =     0.00019224   -0.00000002   -0.04844489
     atom   10 type  1   force =    -0.00006423    0.00000121   -0.01711356
     atom   11 type  1   force =     0.00006567    0.00000000    0.01710367
     atom   12 type  1   force =    -0.00019562    0.00000086    0.04843010
     atom   13 type  1   force =     0.00011937    0.00000008   -0.00767711
     atom   14 type  1   force =    -0.00010696    0.00000458    0.00767831
     atom   15 type  1   force =     0.00019474   -0.00000002   -0.04843204
     atom   16 type  1   force =    -0.00006310   -0.00000284   -0.01711119
     atom   17 type  1   force =     0.00006133    0.00000001    0.01709754
     atom   18 type  1   force =    -0.00019897   -0.00000008    0.04842012
     atom   19 type  1   force =     0.00012291    0.00000007   -0.00767803
     atom   20 type  1   force =    -0.00010696   -0.00000441    0.00767832
     atom   21 type  1   force =     0.00020242   -0.00000002   -0.04844128
     atom   22 type  1   force =    -0.00006310    0.00000285   -0.01711118
     atom   23 type  1   force =     0.00006166    0.00000000    0.01709219
     atom   24 type  1   force =    -0.00019897    0.00000004    0.04842013

     Forces acting on atoms (cartesian axes, Ry/au):

     atom    1 type  1   force =     0.00018026    0.00000000   -0.00011786
     atom    2 type  1   force =    -0.00023677   -0.00000103    0.00011774
     atom    3 type  1   force =     0.00018864    0.00000000    0.00026884
     atom    4 type  1   force =     0.00014116    0.00000797    0.00006310
     atom    5 type  1   force =    -0.00016875    0.00000000   -0.00005628
     atom    6 type  1   force =    -0.00013141    0.00000527   -0.00026331
     atom    7 type  1   force =     0.00016118    0.00000000   -0.00011756
     atom    8 type  1   force =    -0.00023677    0.00000103    0.00011774
     atom    9 type  1   force =     0.00013355    0.00000000    0.00027519
     atom   10 type  1   force =     0.00014116   -0.00000797    0.00006310
     atom   11 type  1   force =    -0.00017814    0.00000000   -0.00009033
     atom   12 type  1   force =    -0.00013141   -0.00000527   -0.00026331
     atom   13 type  1   force =     0.00034909    0.00000000   -0.00011255
     atom   14 type  1   force =    -0.00029269    0.00000246    0.00011400
     atom   15 type  1   force =     0.00017694    0.00000000    0.00028012
     atom   16 type  1   force =     0.00012288   -0.00002000    0.00005377
     atom   17 type  1   force =    -0.00009309    0.00000000   -0.00004895
     atom   18 type  1   force =    -0.00023656    0.00000051   -0.00029911
     atom   19 type  1   force =     0.00036805    0.00000000   -0.00010271
     atom   20 type  1   force =    -0.00029269   -0.00000246    0.00011400
     atom   21 type  1   force =     0.00023422    0.00000000    0.00029141
     atom   22 type  1   force =     0.00012288    0.00002000    0.00005377
     atom   23 type  1   force =    -0.00008515    0.00000000   -0.00004167
     atom   24 type  1   force =    -0.00023656   -0.00000051   -0.00029911
     The non-local contrib.  to forces
     atom    1 type  1   force =     0.00007907    0.00000000    0.09992734
     atom    2 type  1   force =    -0.00010593   -0.00001189   -0.09993539
     atom    3 type  1   force =     0.00061646    0.00000000   -0.03928618
     atom    4 type  1   force =    -0.00011373    0.00001094    0.00445215
     atom    5 type  1   force =     0.00010616    0.00000000   -0.00442689
     atom    6 type  1   force =    -0.00056771    0.00000397    0.03930272
     atom    7 type  1   force =     0.00007763    0.00000000    0.09993212
     atom    8 type  1   force =    -0.00010593    0.00001189   -0.09993539
     atom    9 type  1   force =     0.00054846    0.00000000   -0.03929699
     atom   10 type  1   force =    -0.00011373   -0.00001094    0.00445215
     atom   11 type  1   force =     0.00009231    0.00000000   -0.00447974
     atom   12 type  1   force =    -0.00056771   -0.00000397    0.03930272
     atom   13 type  1   force =     0.00016960    0.00000000    0.09995069
     atom   14 type  1   force =    -0.00014320    0.00001187   -0.09994530
     atom   15 type  1   force =     0.00059166    0.00000000   -0.03925585
     atom   16 type  1   force =    -0.00013773   -0.00002492    0.00442040
     atom   17 type  1   force =     0.00014129    0.00000000   -0.00442210
     atom   18 type  1   force =    -0.00063615    0.00000279    0.03924616
     atom   19 type  1   force =     0.00017218    0.00000000    0.09996022
     atom   20 type  1   force =    -0.00014320   -0.00001187   -0.09994530
     atom   21 type  1   force =     0.00065600    0.00000000   -0.03926786
     atom   22 type  1   force =    -0.00013773    0.00002492    0.00442040
     atom   23 type  1   force =     0.00015737    0.00000000   -0.00441656
     atom   24 type  1   force =    -0.00063615   -0.00000279    0.03924616
     The ionic contribution  to forces
     atom    1 type  1   force =    -0.00086450   -0.00000002    8.55905503
     atom    2 type  1   force =     0.00005689   -0.00023672   -8.55887658
     atom    3 type  1   force =     0.00129079    0.00000001   -5.06705930
     atom    4 type  1   force =    -0.00311764    0.00003329   -2.15364704
     atom    5 type  1   force =     0.00302051   -0.00000002    2.15369196
     atom    6 type  1   force =    -0.00033757    0.00004692    5.06737021
     atom    7 type  1   force =    -0.00108603    0.00000003    8.55876377
     atom    8 type  1   force =     0.00005689    0.00023671   -8.55887652
     atom    9 type  1   force =     0.00014462    0.00000001   -5.06758389
     atom   10 type  1   force =    -0.00311763   -0.00003331   -2.15364696
     atom   11 type  1   force =     0.00279648    0.00000004    2.15376975
     atom   12 type  1   force =    -0.00033756   -0.00004694    5.06737040
     atom   13 type  1   force =     0.00153723   -0.00000002    8.55894895
     atom   14 type  1   force =    -0.00072909   -0.00001772   -8.55904374
     atom   15 type  1   force =     0.00091113    0.00000001   -5.06683119
     atom   16 type  1   force =    -0.00367833   -0.00060962   -2.15358659
     atom   17 type  1   force =     0.00379927   -0.00000002    2.15371829
     atom   18 type  1   force =    -0.00188977    0.00000077    5.06721266
     atom   19 type  1   force =     0.00175235    0.00000003    8.55906303
     atom   20 type  1   force =    -0.00072908    0.00001771   -8.55904368
     atom   21 type  1   force =     0.00208015    0.00000001   -5.06747263
     atom   22 type  1   force =    -0.00367832    0.00060960   -2.15358651
     atom   23 type  1   force =     0.00400899    0.00000004    2.15307775
     atom   24 type  1   force =    -0.00188977   -0.00000079    5.06721285
     The local contribution  to forces
     atom    1 type  1   force =     0.00088886   -0.00004252   -8.65140114
     atom    2 type  1   force =    -0.00010037    0.00020341    8.65125715
     atom    3 type  1   force =    -0.00191883   -0.00004369    5.15504731
     atom    4 type  1   force =     0.00343141   -0.00007934    2.16637164
     atom    5 type  1   force =    -0.00336113   -0.00004494   -2.16641975
     atom    6 type  1   force =     0.00096772   -0.00008829   -5.15536026
     atom    7 type  1   force =     0.00109597   -0.00004393   -8.65113815
     atom    8 type  1   force =    -0.00009805   -0.00029433    8.65125358
     atom    9 type  1   force =    -0.00075226   -0.00004450    5.15559710
     atom   10 type  1   force =     0.00344187   -0.00000937    2.16636922
     atom   11 type  1   force =    -0.00313239   -0.00004169   -2.16648241
     atom   12 type  1   force =     0.00097178    0.00000148   -5.15536512
     atom   13 type  1   force =    -0.00147304   -0.00004252   -8.65133544
     atom   14 type  1   force =     0.00068185   -0.00004155    8.65142716
     atom   15 type  1   force =    -0.00152092   -0.00004369    5.15479506
     atom   16 type  1   force =     0.00399671    0.00057287    2.16633130
     atom   17 type  1   force =    -0.00409501   -0.00004494   -2.16644189
     atom   18 type  1   force =     0.00248662   -0.00004649   -5.15517120
     atom   19 type  1   force =    -0.00167507   -0.00004393   -8.65144833
     atom   20 type  1   force =     0.00068475   -0.00004938    8.65142300
     atom   21 type  1   force =    -0.00270457   -0.00004450    5.15546901
     atom   22 type  1   force =     0.00400717   -0.00066159    2.16632887
     atom   23 type  1   force =    -0.00431314   -0.00004169   -2.16579429
     atom   24 type  1   force =     0.00249069   -0.00004032   -5.15517607
     The core correction contribution to forces
     atom    1 type  1   force =     0.00000000    0.00000000    0.00000000
     atom    2 type  1   force =     0.00000000    0.00000000    0.00000000
     atom    3 type  1   force =     0.00000000    0.00000000    0.00000000
     atom    4 type  1   force =     0.00000000    0.00000000    0.00000000
     atom    5 type  1   force =     0.00000000    0.00000000    0.00000000
     atom    6 type  1   force =     0.00000000    0.00000000    0.00000000
     atom    7 type  1   force =     0.00000000    0.00000000    0.00000000
     atom    8 type  1   force =     0.00000000    0.00000000    0.00000000
     atom    9 type  1   force =     0.00000000    0.00000000    0.00000000
     atom   10 type  1   force =     0.00000000    0.00000000    0.00000000
     atom   11 type  1   force =     0.00000000    0.00000000    0.00000000
     atom   12 type  1   force =     0.00000000    0.00000000    0.00000000
     atom   13 type  1   force =     0.00000000    0.00000000    0.00000000
     atom   14 type  1   force =     0.00000000    0.00000000    0.00000000
     atom   15 type  1   force =     0.00000000    0.00000000    0.00000000
     atom   16 type  1   force =     0.00000000    0.00000000    0.00000000
     atom   17 type  1   force =     0.00000000    0.00000000    0.00000000
     atom   18 type  1   force =     0.00000000    0.00000000    0.00000000
     atom   19 type  1   force =     0.00000000    0.00000000    0.00000000
     atom   20 type  1   force =     0.00000000    0.00000000    0.00000000
     atom   21 type  1   force =     0.00000000    0.00000000    0.00000000
     atom   22 type  1   force =     0.00000000    0.00000000    0.00000000
     atom   23 type  1   force =     0.00000000    0.00000000    0.00000000
     atom   24 type  1   force =     0.00000000    0.00000000    0.00000000
     The Hubbard contrib.    to forces
     atom    1 type  1   force =     0.00000000    0.00000000    0.00000000
     atom    2 type  1   force =     0.00000000    0.00000000    0.00000000
     atom    3 type  1   force =     0.00000000    0.00000000    0.00000000
     atom    4 type  1   force =     0.00000000    0.00000000    0.00000000
     atom    5 type  1   force =     0.00000000    0.00000000    0.00000000
     atom    6 type  1   force =     0.00000000    0.00000000    0.00000000
     atom    7 type  1   force =     0.00000000    0.00000000    0.00000000
     atom    8 type  1   force =     0.00000000    0.00000000    0.00000000
     atom    9 type  1   force =     0.00000000    0.00000000    0.00000000
     atom   10 type  1   force =     0.00000000    0.00000000    0.00000000
     atom   11 type  1   force =     0.00000000    0.00000000    0.00000000
     atom   12 type  1   force =     0.00000000    0.00000000    0.00000000
     atom   13 type  1   force =     0.00000000    0.00000000    0.00000000
     atom   14 type  1   force =     0.00000000    0.00000000    0.00000000
     atom   15 type  1   force =     0.00000000    0.00000000    0.00000000
     atom   16 type  1   force =     0.00000000    0.00000000    0.00000000
     atom   17 type  1   force =     0.00000000    0.00000000    0.00000000
     atom   18 type  1   force =     0.00000000    0.00000000    0.00000000
     atom   19 type  1   force =     0.00000000    0.00000000    0.00000000
     atom   20 type  1   force =     0.00000000    0.00000000    0.00000000
     atom   21 type  1   force =     0.00000000    0.00000000    0.00000000
     atom   22 type  1   force =     0.00000000    0.00000000    0.00000000
     atom   23 type  1   force =     0.00000000    0.00000000    0.00000000
     atom   24 type  1   force =     0.00000000    0.00000000    0.00000000
     The SCF correction term to forces
     atom    1 type  1   force =    -0.00000185    0.00000000    0.00000053
     atom    2 type  1   force =     0.00000268    0.00000000   -0.00000052
     atom    3 type  1   force =     0.00000027    0.00000000    0.00000381
     atom    4 type  1   force =     0.00000012   -0.00000008    0.00000105
     atom    5 type  1   force =    -0.00000028    0.00000000   -0.00000102
     atom    6 type  1   force =    -0.00000027    0.00000013   -0.00000378
     atom    7 type  1   force =    -0.00000165   -0.00000000    0.00000055
     atom    8 type  1   force =     0.00000268   -0.00000000   -0.00000052
     atom    9 type  1   force =     0.00000049   -0.00000000    0.00000382
     atom   10 type  1   force =     0.00000012    0.00000008    0.00000105
     atom   11 type  1   force =    -0.00000021   -0.00000000   -0.00000163
     atom   12 type  1   force =    -0.00000027   -0.00000013   -0.00000378
     atom   13 type  1   force =    -0.00000408    0.00000000    0.00000031
     atom   14 type  1   force =     0.00000325   -0.00000011   -0.00000042
     atom   15 type  1   force =     0.00000033    0.00000000    0.00000411
     atom   16 type  1   force =     0.00000010    0.00000014    0.00000099
     atom   17 type  1   force =     0.00000004    0.00000000   -0.00000084
     atom   18 type  1   force =    -0.00000033    0.00000009   -0.00000455
     atom   19 type  1   force =    -0.00000432   -0.00000000    0.00000036
     atom   20 type  1   force =     0.00000325    0.00000011   -0.00000042
     atom   21 type  1   force =     0.00000021    0.00000000    0.00000414
     atom   22 type  1   force =     0.00000010   -0.00000014    0.00000099
     atom   23 type  1   force =    -0.00000003   -0.00000000   -0.00000081
     atom   24 type  1   force =    -0.00000033   -0.00000009   -0.00000455

     Total force =     0.001340     Total SCF correction =     0.000015
     Energy error            =      8.5E-06 Ry
     Gradient error          =      3.7E-04 Ry/Bohr

     bfgs converged in  41 scf cycles and  32 bfgs steps
     (criteria: energy <  1.0E-05 Ry, force <  3.9E-04 Ry/Bohr)

     End of BFGS Geometry Optimization

     Final energy             =    -361.0094097436 Ry

     File ./Li/Lithium.bfgs deleted, as requested
Begin final coordinates

ATOMIC_POSITIONS (angstrom)
Li               3.1848292585        4.8580445300       27.2975870143
Li               0.7823860737        2.4292094240       19.7488136420
Li               1.9625005115        4.8580445600       21.5693172189
Li               3.2502187160        2.4289628816       22.6590649305
Li               0.7164579617        4.8580445800       24.3870792428
Li               2.0035593766        2.4290121911       25.4770049950
Li               3.1848775426        9.7160883600       27.2972762017
Li               0.7823860337        7.2868797360       19.7488137020
Li               1.9629928998        9.7160883800       21.5690670470
Li               3.2502185360        7.2871262584       22.6590649705
Li               0.7167043579        9.7160883300       24.3874182756
Li               2.0035593066        7.2870769189       25.4770050749
Li               6.1582219061        4.8580445300       27.2973437959
Li               3.7578474934        2.4292202912       19.7487629865
Li               4.9375418374        4.8580445600       21.5692383431
Li               6.2253327827        2.4291957172       22.6591911593
Li               3.6907205492        4.8580445800       24.3871059456
Li               4.9794393736        2.4290115132       25.4773048464
Li               6.1579279773        9.7160883600       27.2973122247
Li               3.7578474434        7.2868688688       19.7487630565
Li               4.9369766502        9.7160883800       21.5689017720
Li               6.2253326027        7.2868934228       22.6591911993
Li               3.6907933175        9.7160883300       24.3868853209
Li               4.9794393036        7.2870775968       25.4773049264
End final coordinates

     Writing all to output data dir ./Li/Lithium.save/ :
     XML data file

     General routines

     Parallel routines

     PAW routines

     Environ routines

   This run was terminated on:  21:57:12   6Jan2025

   JOB DONE.