     Program PWSCF v.7.4 starts on 20Jan2025 at  4:23:56

     Reading input from espresso.pwi
Warning: card &CELL ignored
Warning: card    PRESS_CONV_THR   = 0.1 ignored
Warning: card    CELL_DOFREE      = 'ALL' ignored
Warning: card / ignored
Warning: card &FCP ignored
Warning: card / ignored
Warning: card &RISM ignored
Warning: card / ignored

     Current dimensions of program PWSCF are:
     Max number of different atomic species (ntypx) = 10
     Max number of k-points (npk) =  40000
     Max angular momentum in pseudopotentials (lmaxx) =  4

     IMPORTANT: XC functional enforced from input :
     Exchange-correlation= PBE
                           (   1   4   3   4   0   0   0)
     Any further DFT definition will be discarded
     Please, verify this is what you really want

     Reading input from environ.in:
     * using ionic solvent mode
     * setting boundary derivatives method to SSCS default
     * setting electrolyte-boundary derivatives method to SSCS default

Environ Warning (1001): card EOF ignored

     Found identity + ( -0.5000 -0.0000 -0.0000) symmetry
     This is a supercell, fractional translations are disabled

     K-points division:     npool     =       2
     R & G space division:  proc/nbgrp/npool/nimage =     256
     Subspace diagonalization in iterative solution of the eigenvalue problem:
     a serial algorithm will be used

     Using Slab Decomposition

     bravais-lattice index     =           12
     lattice parameter (alat)  =      18.3607  a.u.
     unit-cell volume          =   26895.2624 (a.u.)^3
     number of atoms/cell      =           44
     number of atomic types    =            1
     number of electrons       =       132.00
     number of Kohn-Sham states=           99
     kinetic-energy cutoff     =      80.0000  Ry
     charge density cutoff     =     800.0000  Ry
     scf convergence threshold =      1.0E-16
     mixing beta               =       0.2000
     number of iterations used =            8  local-TF  mixing
     Exchange-correlation= PBE
                           (   1   4   3   4   0   0   0)

                                  Environ Setup Summary

          O. Andreussi, I. Dabo and N. Marzari, J. Chem. Phys. 136, 064102 (2012)
          F. Nattino, M. Truscott, N. Marzari, and O. Andreussi, J. Chem. Phys. 150, 041722 (2019)

     in publications or presentations arising from this work.

     Parameters

     compensation onset threshold      =               0.1000E+00
     static permittivity               =                    89.90
     surface tension in input (dyn/cm) =                    37.30
     surface tension in internal units =               0.4792E-04

     Solvent Boundary

     solvent mode                      =                    ionic
     derivatives method                =                   lowmem
     electrolyte derivatives method    =                   lowmem
     numerical core for derivatives    =                      fft
     switching function adopted        =                     SCCS
     density limit for vacuum region   =               0.5000E-02
     density limit for bulk solvent    =               0.1000E-03
     soft-sphere radius mode           =                    bondi
     soft-sphere softness              =                     0.50
     alpha                             =                     1.32

     Electrostatic Setup

     electrostatic problem to solve    =                    modpb
     numerical solver adopted          =                   newton
     type of auxiliary density adopted =                     none
     numerical core for poisson        =                      fft
     adopting a nested solver scheme
     inner solver                      =                       cg
     inner core                        =                      fft
     type of pbc corrections           =                parabolic
     numerical core for corrections    =                      1da

     >>>>> Grand-Canonical SCF is activated <<<<<
     Initial Total Charge  =     0.000000 e
     Target Fermi Energy   =    -4.904000 eV
     Thr. of Fermi Energy  =     0.001000 eV
     Wave-shift of Kerker  =     0.400000 bohr^-1
     Wave-shift of Hartree =     1.500000 bohr^-1
     Mixing Rate of Fermi  =     0.050000

     celldm(1)=  18.360747  celldm(2)=   0.866025  celldm(3)=   5.240449
     celldm(4)=  -0.288675  celldm(5)=   0.000000  celldm(6)=   0.000000

     crystal axes: (cart. coord. in units of alat)
               a(1) = (   1.000000   0.000000   0.000000 )
               a(2) = (  -0.250000   0.829156   0.000000 )
               a(3) = (   0.000000   0.000000   5.240449 )

     reciprocal axes: (cart. coord. in units 2 pi/alat)
               b(1) = (  1.000000  0.301511 -0.000000 )
               b(2) = (  0.000000  1.206046  0.000000 )
               b(3) = (  0.000000 -0.000000  0.190823 )

     PseudoPot. # 1 for Li read from file:
     /work/e89/e89/ba3g18/Repos/Pseudopotentials/Pslibrary/Li.pbe-sl-kjpaw_psl.1.0.0.UPF
     MD5 check sum: 3f4d2cafebb47c6c3aa8ed472e6f074d
     Pseudo is Projector augmented-wave, Zval =  3.0
     Generated using 'atomic' code by A. Dal Corso  v.7.4
     Shape of augmentation charge: PSQ
     Using radial grid of 1017 points,  4 beta functions with:
                l(1) =   0
                l(2) =   0
                l(3) =   1
                l(4) =   1
     Q(r) pseudized with 0 coefficients

     atomic species   valence    mass     pseudopotential
     Li                3.00     6.94000     Li( 1.00)

     No symmetry found

                                    s                        frac. trans.

      isym =  1     identity

 cryst.   s( 1) = (     1          0          0      )
                  (     0          1          0      )
                  (     0          0          1      )

 cart.    s( 1) = (  1.0000000  0.0000000  0.0000000 )
                  (  0.0000000  1.0000000  0.0000000 )
                  (  0.0000000  0.0000000  1.0000000 )

     point group C_1 (1)
     there are  1 classes
     the character table:

       E
A      1.00

     the symmetry operations in each class and the name of the first element:

     E        1
          identity

   Cartesian axes

     site n.     atom                  positions (alat units)
         1        Li     tau(   1) = (  -0.2498848   0.6805171   1.9639734  )
         2        Li     tau(   2) = (   0.2498293   0.2644806   3.2170258  )
         3        Li     tau(   3) = (  -0.0000614   0.4782258   3.0308238  )
         4        Li     tau(   4) = (   0.2499023   0.6718845   2.9111948  )
         5        Li     tau(   5) = (   0.2498677   0.0829201   2.7969819  )
         6        Li     tau(   6) = (  -0.0000099   0.3046305   2.7117897  )
         7        Li     tau(   7) = (   0.2500360   0.5227668   2.6010262  )
         8        Li     tau(   8) = (  -0.0000173   0.7497596   2.4843037  )
         9        Li     tau(   9) = (   0.0001023   0.1638696   2.3556413  )
        10        Li     tau(  10) = (   0.2501472   0.3750900   2.2664359  )
        11        Li     tau(  11) = (   0.0000848   0.5658453   2.1917138  )
        12        Li     tau(  12) = (  -0.0001472   0.1525567   2.9740143  )
        13        Li     tau(  13) = (   0.2498976   0.3637760   2.8848096  )
        14        Li     tau(  14) = (   0.0000172   0.6070426   2.7561465  )
        15        Li     tau(  15) = (   0.2499641   0.8340323   2.6394242  )
        16        Li     tau(  16) = (   0.2500098   0.2230130   2.5286597  )
        17        Li     tau(  17) = (   0.0001324   0.4447261   2.4434677  )
        18        Li     tau(  18) = (   0.2500976   0.6849159   2.3292554  )
        19        Li     tau(  19) = (   0.2500613   0.0494186   2.2096271  )
        20        Li     tau(  20) = (   0.0001704   0.2631645   2.0234237  )
        21        Li     tau(  21) = (   0.2498846   0.6762823   3.2764768  )
        22        Li     tau(  22) = (  -0.0000849   0.7909564   3.0487362  )
        23        Li     tau(  23) = (   0.2501152   0.6805171   1.9639734  )
        24        Li     tau(  24) = (   0.7498294   0.2644806   3.2170258  )
        25        Li     tau(  25) = (   0.4999386   0.4782258   3.0308238  )
        26        Li     tau(  26) = (   0.7499023   0.6718845   2.9111948  )
        27        Li     tau(  27) = (   0.7498677   0.0829201   2.7969819  )
        28        Li     tau(  28) = (   0.4999901   0.3046305   2.7117898  )
        29        Li     tau(  29) = (   0.7500360   0.5227668   2.6010262  )
        30        Li     tau(  30) = (   0.4999828   0.7497596   2.4843037  )
        31        Li     tau(  31) = (   0.5001022   0.1638695   2.3556412  )
        32        Li     tau(  32) = (   0.7501473   0.3750900   2.2664359  )
        33        Li     tau(  33) = (   0.5000848   0.5658452   2.1917138  )
        34        Li     tau(  34) = (   0.4998528   0.1525567   2.9740143  )
        35        Li     tau(  35) = (   0.7498976   0.3637760   2.8848096  )
        36        Li     tau(  36) = (   0.5000172   0.6070425   2.7561465  )
        37        Li     tau(  37) = (   0.7499640   0.8340323   2.6394242  )
        38        Li     tau(  38) = (   0.7500098   0.2230129   2.5286597  )
        39        Li     tau(  39) = (   0.5001324   0.4447262   2.4434677  )
        40        Li     tau(  40) = (   0.7500977   0.6849160   2.3292554  )
        41        Li     tau(  41) = (   0.7500613   0.0494186   2.2096271  )
        42        Li     tau(  42) = (   0.5001704   0.2631646   2.0234236  )
        43        Li     tau(  43) = (   0.7498848   0.6762824   3.2764769  )
        44        Li     tau(  44) = (   0.4999151   0.7909564   3.0487363  )

   Crystallographic axes

     site n.     atom                  positions (cryst. coord.)
         1        Li     tau(   1) = ( -0.0447012  0.8207347  0.3747720  )
         2        Li     tau(   2) = (  0.3295732  0.3189756  0.6138836  )
         3        Li     tau(   3) = (  0.1441291  0.5767622  0.5783519  )
         4        Li     tau(   4) = (  0.4524831  0.8103234  0.5555239  )
         5        Li     tau(   5) = (  0.2748691  0.1000054  0.5337294  )
         6        Li     tau(   6) = (  0.0918397  0.3673983  0.5174728  )
         7        Li     tau(   7) = (  0.4076562  0.6304806  0.4963365  )
         8        Li     tau(   8) = (  0.2260438  0.9042443  0.4740631  )
         9        Li     tau(   9) = (  0.0495108  0.1976342  0.4495113  )
        10        Li     tau(  10) = (  0.3632412  0.4523757  0.4324889  )
        11        Li     tau(  11) = (  0.1706936  0.6824352  0.4182302  )
        12        Li     tau(  12) = (  0.0458504  0.1839904  0.5675113  )
        13        Li     tau(  13) = (  0.3595802  0.4387305  0.5504890  )
        14        Li     tau(  14) = (  0.1830474  0.7321211  0.5259371  )
        15        Li     tau(  15) = (  0.5014343  1.0058811  0.5036638  )
        16        Li     tau(  16) = (  0.3172508  0.2689638  0.4825273  )
        17        Li     tau(  17) = (  0.1342224  0.5363600  0.4662707  )
        18        Li     tau(  18) = (  0.4566076  0.8260399  0.4444763  )
[...]
     atom    7 type  1   force =     0.00030998   -0.04174049   -0.40517942
     atom    8 type  1   force =     0.00045011    0.06172001   -3.09411460
     atom    9 type  1   force =    -0.00055063   -0.02855938   -6.15875286
     atom   10 type  1   force =    -0.00007970   -0.12062384   -8.17371272
     atom   11 type  1   force =     0.00024195   -0.04614479   -9.61533803
     atom   12 type  1   force =     0.00007903    0.12060191    8.17371132
     atom   13 type  1   force =     0.00055136    0.02856258    6.15875585
     atom   14 type  1   force =    -0.00044930   -0.06173177    3.09411817
     atom   15 type  1   force =    -0.00031101    0.04173896    0.40519187
     atom   16 type  1   force =     0.00050264    0.00136730   -2.10045355
     atom   17 type  1   force =    -0.00029824   -0.07607468   -3.98672274
     atom   18 type  1   force =    -0.00059679    0.07659195   -6.70308975
     atom   19 type  1   force =     0.00042494    0.15277541   -9.29322807
     atom   20 type  1   force =    -0.00008280   -0.04994085  -11.52797879
     atom   21 type  1   force =     0.00009256   -0.03078155   11.83781301
     atom   22 type  1   force =    -0.00024175    0.04614210    9.61533073
     atom   23 type  1   force =    -0.00009225    0.03078843  -11.83781563
     atom   24 type  1   force =     0.00008321    0.04993324   11.52798146
     atom   25 type  1   force =    -0.00042526   -0.15275937    9.29323098
     atom   26 type  1   force =     0.00059691   -0.07658155    6.70309610
     atom   27 type  1   force =     0.00029814    0.07606731    3.98672072
     atom   28 type  1   force =    -0.00050292   -0.00135123    2.10043450
     atom   29 type  1   force =     0.00031020   -0.04174062   -0.40517977
     atom   30 type  1   force =     0.00044950    0.06172015   -3.09411501
     atom   31 type  1   force =    -0.00055017   -0.02855909   -6.15875331
     atom   32 type  1   force =    -0.00008017   -0.12062411   -8.17371134
     atom   33 type  1   force =     0.00024180   -0.04614477   -9.61533703
     atom   34 type  1   force =     0.00007909    0.12060188    8.17371255
     atom   35 type  1   force =     0.00055149    0.02856316    6.15875589
     atom   36 type  1   force =    -0.00044925   -0.06173173    3.09411818
     atom   37 type  1   force =    -0.00031038    0.04173903    0.40519236
     atom   38 type  1   force =     0.00050234    0.00136742   -2.10045312
     atom   39 type  1   force =    -0.00029834   -0.07607529   -3.98672172
     atom   40 type  1   force =    -0.00059693    0.07659178   -6.70308992
     atom   41 type  1   force =     0.00042460    0.15277549   -9.29322805
     atom   42 type  1   force =    -0.00008280   -0.04994097  -11.52797887
     atom   43 type  1   force =     0.00009197   -0.03078158   11.83781291
     atom   44 type  1   force =    -0.00024147    0.04614201    9.61533217
     The local contribution  to forces
     atom    1 type  1   force =     0.00012310   -0.02543224   11.78628994
     atom    2 type  1   force =    -0.00008430   -0.04516425  -11.57120522
     atom    3 type  1   force =     0.00052914    0.17033079   -9.45810219
     atom    4 type  1   force =    -0.00057172    0.08110091   -6.77149453
     atom    5 type  1   force =    -0.00030956   -0.08131162   -4.04380922
     atom    6 type  1   force =     0.00059916    0.00182970   -2.12872065
     atom    7 type  1   force =    -0.00038996    0.04583769    0.41312158
     atom    8 type  1   force =    -0.00046031   -0.06625339    3.12779943
     atom    9 type  1   force =     0.00065190    0.03099062    6.22951974
     atom   10 type  1   force =    -0.00003156    0.12138662    8.31124984
     atom   11 type  1   force =    -0.00029372    0.06262421    9.77470147
     atom   12 type  1   force =     0.00003233   -0.12136366   -8.31124953
     atom   13 type  1   force =    -0.00065266   -0.03099437   -6.22952290
     atom   14 type  1   force =     0.00045954    0.06626488   -3.12780390
     atom   15 type  1   force =     0.00039097   -0.04583577   -0.41313476
     atom   16 type  1   force =    -0.00059935   -0.00184556    2.12874032
     atom   17 type  1   force =     0.00030936    0.08131860    4.04381119
     atom   18 type  1   force =     0.00057150   -0.08111221    6.77148753
     atom   19 type  1   force =    -0.00052831   -0.17034643    9.45810004
     atom   20 type  1   force =     0.00008374    0.04517332   11.57120073
     atom   21 type  1   force =    -0.00012348    0.02542435  -11.78628654
     atom   22 type  1   force =     0.00029354   -0.06262237   -9.77469566
     atom   23 type  1   force =     0.00012317   -0.02543228   11.78628982
     atom   24 type  1   force =    -0.00008417   -0.04516424  -11.57120517
     atom   25 type  1   force =     0.00052871    0.17033059   -9.45810276
     atom   26 type  1   force =    -0.00057161    0.08110133   -6.77149474
     atom   27 type  1   force =    -0.00030928   -0.08131130   -4.04381000
     atom   28 type  1   force =     0.00059960    0.00182990   -2.12872185
     atom   29 type  1   force =    -0.00039018    0.04583782    0.41312192
     atom   30 type  1   force =    -0.00045971   -0.06625353    3.12779986
     atom   31 type  1   force =     0.00065146    0.03099036    6.22952021
     atom   32 type  1   force =    -0.00003107    0.12138689    8.31124840
     atom   33 type  1   force =    -0.00029357    0.06262424    9.77470041
     atom   34 type  1   force =     0.00003227   -0.12136363   -8.31125081
     atom   35 type  1   force =    -0.00065278   -0.03099495   -6.22952293
     atom   36 type  1   force =     0.00045947    0.06626484   -3.12780392
     atom   37 type  1   force =     0.00039035   -0.04583585   -0.41313525
     atom   38 type  1   force =    -0.00059902   -0.00184568    2.12873990
     atom   39 type  1   force =     0.00030946    0.08131920    4.04381016
     atom   40 type  1   force =     0.00057163   -0.08111205    6.77148769
     atom   41 type  1   force =    -0.00052794   -0.17034653    9.45810000
     atom   42 type  1   force =     0.00008372    0.04517344   11.57120073
     atom   43 type  1   force =    -0.00012290    0.02542438  -11.78628636
     atom   44 type  1   force =     0.00029326   -0.06262222   -9.77469722
     The core correction contribution to forces
     atom    1 type  1   force =     0.00000000    0.00000000    0.00000000
     atom    2 type  1   force =     0.00000000    0.00000000    0.00000000
     atom    3 type  1   force =     0.00000000    0.00000000    0.00000000
     atom    4 type  1   force =     0.00000000    0.00000000    0.00000000
     atom    5 type  1   force =     0.00000000    0.00000000    0.00000000
     atom    6 type  1   force =     0.00000000    0.00000000    0.00000000
     atom    7 type  1   force =     0.00000000    0.00000000    0.00000000
     atom    8 type  1   force =     0.00000000    0.00000000    0.00000000
     atom    9 type  1   force =     0.00000000    0.00000000    0.00000000
     atom   10 type  1   force =     0.00000000    0.00000000    0.00000000
     atom   11 type  1   force =     0.00000000    0.00000000    0.00000000
     atom   12 type  1   force =     0.00000000    0.00000000    0.00000000
     atom   13 type  1   force =     0.00000000    0.00000000    0.00000000
     atom   14 type  1   force =     0.00000000    0.00000000    0.00000000
     atom   15 type  1   force =     0.00000000    0.00000000    0.00000000
     atom   16 type  1   force =     0.00000000    0.00000000    0.00000000
     atom   17 type  1   force =     0.00000000    0.00000000    0.00000000
     atom   18 type  1   force =     0.00000000    0.00000000    0.00000000
     atom   19 type  1   force =     0.00000000    0.00000000    0.00000000
     atom   20 type  1   force =     0.00000000    0.00000000    0.00000000
     atom   21 type  1   force =     0.00000000    0.00000000    0.00000000
     atom   22 type  1   force =     0.00000000    0.00000000    0.00000000
     atom   23 type  1   force =     0.00000000    0.00000000    0.00000000
     atom   24 type  1   force =     0.00000000    0.00000000    0.00000000
     atom   25 type  1   force =     0.00000000    0.00000000    0.00000000
     atom   26 type  1   force =     0.00000000    0.00000000    0.00000000
     atom   27 type  1   force =     0.00000000    0.00000000    0.00000000
     atom   28 type  1   force =     0.00000000    0.00000000    0.00000000
     atom   29 type  1   force =     0.00000000    0.00000000    0.00000000
     atom   30 type  1   force =     0.00000000    0.00000000    0.00000000
     atom   31 type  1   force =     0.00000000    0.00000000    0.00000000
     atom   32 type  1   force =     0.00000000    0.00000000    0.00000000
     atom   33 type  1   force =     0.00000000    0.00000000    0.00000000
     atom   34 type  1   force =     0.00000000    0.00000000    0.00000000
     atom   35 type  1   force =     0.00000000    0.00000000    0.00000000
     atom   36 type  1   force =     0.00000000    0.00000000    0.00000000
     atom   37 type  1   force =     0.00000000    0.00000000    0.00000000
     atom   38 type  1   force =     0.00000000    0.00000000    0.00000000
     atom   39 type  1   force =     0.00000000    0.00000000    0.00000000
     atom   40 type  1   force =     0.00000000    0.00000000    0.00000000
     atom   41 type  1   force =     0.00000000    0.00000000    0.00000000
     atom   42 type  1   force =     0.00000000    0.00000000    0.00000000
     atom   43 type  1   force =     0.00000000    0.00000000    0.00000000
     atom   44 type  1   force =     0.00000000    0.00000000    0.00000000
     The Hubbard contrib.    to forces
     atom    1 type  1   force =     0.00000000    0.00000000    0.00000000
     atom    2 type  1   force =     0.00000000    0.00000000    0.00000000
     atom    3 type  1   force =     0.00000000    0.00000000    0.00000000
     atom    4 type  1   force =     0.00000000    0.00000000    0.00000000
     atom    5 type  1   force =     0.00000000    0.00000000    0.00000000
     atom    6 type  1   force =     0.00000000    0.00000000    0.00000000
     atom    7 type  1   force =     0.00000000    0.00000000    0.00000000
     atom    8 type  1   force =     0.00000000    0.00000000    0.00000000
     atom    9 type  1   force =     0.00000000    0.00000000    0.00000000
     atom   10 type  1   force =     0.00000000    0.00000000    0.00000000
     atom   11 type  1   force =     0.00000000    0.00000000    0.00000000
     atom   12 type  1   force =     0.00000000    0.00000000    0.00000000
     atom   13 type  1   force =     0.00000000    0.00000000    0.00000000
     atom   14 type  1   force =     0.00000000    0.00000000    0.00000000
     atom   15 type  1   force =     0.00000000    0.00000000    0.00000000
     atom   16 type  1   force =     0.00000000    0.00000000    0.00000000
     atom   17 type  1   force =     0.00000000    0.00000000    0.00000000
     atom   18 type  1   force =     0.00000000    0.00000000    0.00000000
     atom   19 type  1   force =     0.00000000    0.00000000    0.00000000
     atom   20 type  1   force =     0.00000000    0.00000000    0.00000000
     atom   21 type  1   force =     0.00000000    0.00000000    0.00000000
     atom   22 type  1   force =     0.00000000    0.00000000    0.00000000
     atom   23 type  1   force =     0.00000000    0.00000000    0.00000000
     atom   24 type  1   force =     0.00000000    0.00000000    0.00000000
     atom   25 type  1   force =     0.00000000    0.00000000    0.00000000
     atom   26 type  1   force =     0.00000000    0.00000000    0.00000000
     atom   27 type  1   force =     0.00000000    0.00000000    0.00000000
     atom   28 type  1   force =     0.00000000    0.00000000    0.00000000
     atom   29 type  1   force =     0.00000000    0.00000000    0.00000000
     atom   30 type  1   force =     0.00000000    0.00000000    0.00000000
     atom   31 type  1   force =     0.00000000    0.00000000    0.00000000
     atom   32 type  1   force =     0.00000000    0.00000000    0.00000000
     atom   33 type  1   force =     0.00000000    0.00000000    0.00000000
     atom   34 type  1   force =     0.00000000    0.00000000    0.00000000
     atom   35 type  1   force =     0.00000000    0.00000000    0.00000000
     atom   36 type  1   force =     0.00000000    0.00000000    0.00000000
     atom   37 type  1   force =     0.00000000    0.00000000    0.00000000
     atom   38 type  1   force =     0.00000000    0.00000000    0.00000000
     atom   39 type  1   force =     0.00000000    0.00000000    0.00000000
     atom   40 type  1   force =     0.00000000    0.00000000    0.00000000
     atom   41 type  1   force =     0.00000000    0.00000000    0.00000000
     atom   42 type  1   force =     0.00000000    0.00000000    0.00000000
     atom   43 type  1   force =     0.00000000    0.00000000    0.00000000
     atom   44 type  1   force =     0.00000000    0.00000000    0.00000000
     The SCF correction term to forces
     atom    1 type  1   force =    -0.00000000   -0.00000000    0.00000001
     atom    2 type  1   force =     0.00000000   -0.00000000   -0.00000001
     atom    3 type  1   force =     0.00000000    0.00000000   -0.00000000
     atom    4 type  1   force =     0.00000000   -0.00000000   -0.00000000
     atom    5 type  1   force =     0.00000000   -0.00000000   -0.00000000
     atom    6 type  1   force =     0.00000000    0.00000000   -0.00000000
     atom    7 type  1   force =     0.00000000    0.00000000   -0.00000000
     atom    8 type  1   force =     0.00000000   -0.00000000   -0.00000000
     atom    9 type  1   force =     0.00000000   -0.00000000   -0.00000000
     atom   10 type  1   force =     0.00000000    0.00000000    0.00000000
     atom   11 type  1   force =     0.00000000    0.00000000    0.00000000
     atom   12 type  1   force =     0.00000000   -0.00000000   -0.00000000
     atom   13 type  1   force =     0.00000000    0.00000000   -0.00000000
     atom   14 type  1   force =     0.00000000    0.00000000    0.00000000
     atom   15 type  1   force =    -0.00000000   -0.00000000   -0.00000000
     atom   16 type  1   force =     0.00000000   -0.00000000   -0.00000000
     atom   17 type  1   force =     0.00000000    0.00000000   -0.00000000
     atom   18 type  1   force =    -0.00000000    0.00000000    0.00000000
     atom   19 type  1   force =     0.00000000   -0.00000000    0.00000000
     atom   20 type  1   force =     0.00000000    0.00000000    0.00000001
     atom   21 type  1   force =     0.00000000    0.00000000   -0.00000001
     atom   22 type  1   force =     0.00000000   -0.00000000   -0.00000000
     atom   23 type  1   force =    -0.00000000   -0.00000000    0.00000001
     atom   24 type  1   force =    -0.00000000   -0.00000000   -0.00000001
     atom   25 type  1   force =    -0.00000000    0.00000000   -0.00000000
     atom   26 type  1   force =    -0.00000000   -0.00000000   -0.00000000
     atom   27 type  1   force =    -0.00000000   -0.00000000   -0.00000000
     atom   28 type  1   force =    -0.00000000    0.00000000   -0.00000000
     atom   29 type  1   force =    -0.00000000    0.00000000   -0.00000000
     atom   30 type  1   force =    -0.00000000   -0.00000000   -0.00000000
     atom   31 type  1   force =    -0.00000000   -0.00000000    0.00000000
     atom   32 type  1   force =    -0.00000000   -0.00000000   -0.00000000
     atom   33 type  1   force =    -0.00000000   -0.00000000    0.00000000
     atom   34 type  1   force =    -0.00000000   -0.00000000   -0.00000000
     atom   35 type  1   force =    -0.00000000    0.00000000   -0.00000000
     atom   36 type  1   force =    -0.00000000    0.00000000    0.00000000
     atom   37 type  1   force =     0.00000000   -0.00000000   -0.00000000
     atom   38 type  1   force =    -0.00000000   -0.00000000   -0.00000000
     atom   39 type  1   force =    -0.00000000    0.00000000   -0.00000000
     atom   40 type  1   force =     0.00000000    0.00000000   -0.00000000
     atom   41 type  1   force =    -0.00000000   -0.00000000    0.00000000
     atom   42 type  1   force =    -0.00000000    0.00000000    0.00000001
     atom   43 type  1   force =     0.00000000    0.00000000   -0.00000001
     atom   44 type  1   force =    -0.00000000   -0.00000000   -0.00000000

     Total force =     0.010178     Total SCF correction =     0.000000

     Writing all to output data dir ./Li/Lithium.save/ :
     XML data file

     General routines

     Parallel routines

     PAW routines

     Environ routines

   This run was terminated on:   5:27:44  20Jan2025

   JOB DONE.