     Program PWSCF v.7.4 starts on  3Jan2025 at 16: 0:49

     Reading input from espresso.pwi
Warning: card &CELL ignored
Warning: card    PRESS_CONV_THR   = 0.1 ignored
Warning: card    CELL_DOFREE      = 'ALL' ignored
Warning: card / ignored
Warning: card &FCP ignored
Warning: card / ignored
Warning: card &RISM ignored
Warning: card / ignored

     Current dimensions of program PWSCF are:
     Max number of different atomic species (ntypx) = 10
     Max number of k-points (npk) =  40000
     Max angular momentum in pseudopotentials (lmaxx) =  4

     IMPORTANT: XC functional enforced from input :
     Exchange-correlation= PBE
                           (   1   4   3   4   0   0   0)
     Any further DFT definition will be discarded
     Please, verify this is what you really want

     Reading input from environ.in:
     * using ionic solvent mode
     * setting boundary derivatives method to SSCS default
     * setting electrolyte-boundary derivatives method to SSCS default

Environ Warning (1001): card EOF ignored

     Found identity + (  0.5000  0.0000  0.0000) symmetry
     This is a supercell, fractional translations are disabled

     K-points division:     npool     =       2
     R & G space division:  proc/nbgrp/npool/nimage =     192
     Subspace diagonalization in iterative solution of the eigenvalue problem:
     a serial algorithm will be used

     Using Slab Decomposition

     bravais-lattice index     =            8
     lattice parameter (alat)  =      12.9830  a.u.
     unit-cell volume          =   16814.9378 (a.u.)^3
     number of atoms/cell      =           20
     number of atomic types    =            1
     number of electrons       =        60.00
     number of Kohn-Sham states=           45
     kinetic-energy cutoff     =      80.0000  Ry
     charge density cutoff     =     800.0000  Ry
     scf convergence threshold =      1.0E-06
     mixing beta               =       0.2000
     number of iterations used =            8  local-TF  mixing
     energy convergence thresh.=      1.0E-05
     force convergence thresh. =      3.9E-04
     Exchange-correlation= PBE
                           (   1   4   3   4   0   0   0)
     nstep                     =          999

                                  Environ Setup Summary

          O. Andreussi, I. Dabo and N. Marzari, J. Chem. Phys. 136, 064102 (2012)
          F. Nattino, M. Truscott, N. Marzari, and O. Andreussi, J. Chem. Phys. 150, 041722 (2019)

     in publications or presentations arising from this work.

     Parameters

     compensation onset threshold      =               0.1000E+00
     static permittivity               =                    89.90
     surface tension in input (dyn/cm) =                    37.30
     surface tension in internal units =               0.4792E-04

     Solvent Boundary

     solvent mode                      =                    ionic
     derivatives method                =                   lowmem
     electrolyte derivatives method    =                   lowmem
     numerical core for derivatives    =                      fft
     switching function adopted        =                     SCCS
     density limit for vacuum region   =               0.5000E-02
     density limit for bulk solvent    =               0.1000E-03
     soft-sphere radius mode           =                    bondi
     soft-sphere softness              =                     0.50
     alpha                             =                     1.32

     Electrostatic Setup

     electrostatic problem to solve    =                    modpb
     numerical solver adopted          =                   newton
     type of auxiliary density adopted =                     none
     numerical core for poisson        =                      fft
     adopting a nested solver scheme
     inner solver                      =                       cg
     inner core                        =                      fft
     type of pbc corrections           =                parabolic
     numerical core for corrections    =                      1da

     >>>>> Grand-Canonical SCF is activated <<<<<
     Initial Total Charge  =     0.000000 e
     Target Fermi Energy   =    -1.904000 eV
     Thr. of Fermi Energy  =     0.001000 eV
     Wave-shift of Kerker  =     0.400000 bohr^-1
     Wave-shift of Hartree =     1.500000 bohr^-1
     Mixing Rate of Fermi  =     0.050000

     celldm(1)=  12.983009  celldm(2)=   1.118034  celldm(3)=   6.872491
     celldm(4)=   0.000000  celldm(5)=   0.000000  celldm(6)=   0.000000

     crystal axes: (cart. coord. in units of alat)
               a(1) = (   1.000000   0.000000   0.000000 )
               a(2) = (   0.000000   1.118034   0.000000 )
               a(3) = (   0.000000   0.000000   6.872491 )

     reciprocal axes: (cart. coord. in units 2 pi/alat)
               b(1) = (  1.000000  0.000000  0.000000 )
               b(2) = (  0.000000  0.894427  0.000000 )
               b(3) = (  0.000000  0.000000  0.145508 )

     PseudoPot. # 1 for Li read from file:
     /work/e89/e89/ba3g18/Repos/Pseudopotentials/Pslibrary/Li.pbe-sl-kjpaw_psl.1.0.0.UPF
     MD5 check sum: 3f4d2cafebb47c6c3aa8ed472e6f074d
     Pseudo is Projector augmented-wave, Zval =  3.0
     Generated using 'atomic' code by A. Dal Corso  v.7.4
     Shape of augmentation charge: PSQ
     Using radial grid of 1017 points,  4 beta functions with:
                l(1) =   0
                l(2) =   0
                l(3) =   1
                l(4) =   1
     Q(r) pseudized with 0 coefficients

     atomic species   valence    mass     pseudopotential
     Li                3.00     6.94000     Li( 1.00)

      2 Sym. Ops. (no inversion) found

                                    s                        frac. trans.

      isym =  1     identity

 cryst.   s( 1) = (     1          0          0      )
                  (     0          1          0      )
                  (     0          0          1      )

 cart.    s( 1) = (  1.0000000  0.0000000  0.0000000 )
                  (  0.0000000  1.0000000  0.0000000 )
                  (  0.0000000  0.0000000  1.0000000 )

      isym =  2     inv. 180 deg rotation - cart. axis [1,0,0]

 cryst.   s( 2) = (    -1          0          0      )
                  (     0          1          0      )
                  (     0          0          1      )

 cart.    s( 2) = ( -1.0000000  0.0000000  0.0000000 )
                  (  0.0000000  1.0000000  0.0000000 )
                  (  0.0000000  0.0000000  1.0000000 )

     point group C_s (m)
     there are  2 classes
     the character table:

       E     s
A'     1.00  1.00
A''    1.00 -1.00

     the symmetry operations in each class and the name of the first element:

     E        1
          identity
     s        2
          inv. 180 deg rotation - cart. axis [1,0,0]

   Cartesian axes

     site n.     atom                  positions (alat units)
         1        Li     tau(   1) = (  -0.0000000   0.4472449   3.7519355  )
         2        Li     tau(   2) = (  -0.0000000   0.9016132   3.4654924  )
         3        Li     tau(   3) = (  -0.0000000   0.2215214   3.2702133  )
         4        Li     tau(   4) = (  -0.0000000   0.6417008   3.0619289  )
         5        Li     tau(   5) = (  -0.0000000   0.0426888   3.9464214  )
         6        Li     tau(   6) = (   0.2500039   0.5518285   3.4069989  )
         7        Li     tau(   7) = (   0.2499988   1.0061979   3.1205538  )
         8        Li     tau(   8) = (   0.2499993   0.2927284   2.9260634  )
         9        Li     tau(   9) = (   0.2500022   0.8117466   3.8105648  )
        10        Li     tau(  10) = (   0.2499982   0.1138819   3.6022766  )
        11        Li     tau(  11) = (   0.5000000   0.4472494   3.7519358  )
        12        Li     tau(  12) = (   0.5000000   0.9016076   3.4654910  )
        13        Li     tau(  13) = (   0.5000000   0.2215253   3.2702044  )
        14        Li     tau(  14) = (   0.5000000   0.6417001   3.0619286  )
        15        Li     tau(  15) = (   0.5000000   0.0426866   3.9464282  )
        16        Li     tau(  16) = (   0.7499961   0.5518285   3.4069989  )
        17        Li     tau(  17) = (   0.7500012   1.0061979   3.1205538  )
        18        Li     tau(  18) = (   0.7500007   0.2927284   2.9260634  )
        19        Li     tau(  19) = (   0.7499978   0.8117466   3.8105648  )
        20        Li     tau(  20) = (   0.7500018   0.1138819   3.6022766  )

   Crystallographic axes

     site n.     atom                  positions (cryst. coord.)
         1        Li     tau(   1) = ( -0.0000000  0.4000280  0.5459353  )
         2        Li     tau(   2) = ( -0.0000000  0.8064274  0.5042556  )
         3        Li     tau(   3) = ( -0.0000000  0.1981348  0.4758410  )
         4        Li     tau(   4) = ( -0.0000000  0.5739547  0.4455341  )
         5        Li     tau(   5) = ( -0.0000000  0.0381820  0.5742345  )
         6        Li     tau(   6) = (  0.2500039  0.4935704  0.4957444  )
         7        Li     tau(   7) = (  0.2499988  0.8999708  0.4540644  )
         8        Li     tau(   8) = (  0.2499993  0.2618243  0.4257646  )
         9        Li     tau(   9) = (  0.2500022  0.7260483  0.5544663  )
        10        Li     tau(  10) = (  0.2499982  0.1018591  0.5241588  )
        11        Li     tau(  11) = (  0.5000000  0.4000320  0.5459354  )
        12        Li     tau(  12) = (  0.5000000  0.8064223  0.5042554  )
        13        Li     tau(  13) = (  0.5000000  0.1981382  0.4758397  )
        14        Li     tau(  14) = (  0.5000000  0.5739540  0.4455340  )
        15        Li     tau(  15) = (  0.5000000  0.0381801  0.5742355  )
        16        Li     tau(  16) = (  0.7499961  0.4935704  0.4957444  )
        17        Li     tau(  17) = (  0.7500012  0.8999708  0.4540644  )
        18        Li     tau(  18) = (  0.7500007  0.2618243  0.4257646  )
        19        Li     tau(  19) = (  0.7499978  0.7260483  0.5544663  )
        20        Li     tau(  20) = (  0.7500018  0.1018591  0.5241588  )

     number of k points=    30  Marzari-Vanderbilt smearing, width (Ry)=  0.0100
                       cart. coord. in units 2pi/alat
        k(    1) = (   0.0000000   0.0000000   0.0000000), wk =   0.0222222
        k(    2) = (   0.0000000   0.0993808   0.0000000), wk =   0.0444444
        k(    3) = (   0.0000000   0.1987616   0.0000000), wk =   0.0444444
        k(    4) = (   0.0000000   0.2981424   0.0000000), wk =   0.0444444
        k(    5) = (   0.0000000   0.3975232   0.0000000), wk =   0.0444444
        k(    6) = (   0.1000000   0.0000000   0.0000000), wk =   0.0444444
        k(    7) = (   0.1000000   0.0993808   0.0000000), wk =   0.0888889
        k(    8) = (   0.1000000   0.1987616   0.0000000), wk =   0.0888889
        k(    9) = (   0.1000000   0.2981424   0.0000000), wk =   0.0888889
        k(   10) = (   0.1000000   0.3975232   0.0000000), wk =   0.0888889
        k(   11) = (   0.2000000   0.0000000   0.0000000), wk =   0.0444444
        k(   12) = (   0.2000000   0.0993808   0.0000000), wk =   0.0888889
[...]
    -3.4838  -3.4837  -3.2493  -3.2493  -2.5298  -2.5298  -2.2835  -2.2835
    -1.6015  -1.6015  -1.3627  -1.3627  -0.8277  -0.8277  -0.4371  -0.4371
    -0.2929  -0.2929   0.0776   0.0776   0.2861

     occupation numbers
     1.0000   1.0000   1.0000   1.0000   1.0000   1.0000   1.0000   1.0000
     1.0000   1.0000   1.0000   1.0000   1.0000   1.0000   1.0000   1.0000
     1.0000   1.0000   1.0000   1.0000   1.0000   1.0000   1.0000   1.0000
     1.0000   1.0000   1.0000   1.0000   1.0000   1.0000   1.0036   1.0036
     0.0001   0.0001   0.0000   0.0000   0.0000   0.0000   0.0000   0.0000
     0.0000   0.0000   0.0000   0.0000   0.0000

     the Fermi energy is    -1.9040 ev

!    total energy              =    -300.76971374 Ry
     total all-electron energy =      -300.769876 Ry
     estimated scf accuracy    <          5.9E-13 Ry

!    total charge of GC-SCF    =      -4.10070090 e
     smearing contrib. (-TS)   =      -0.00008866 Ry
     internal energy E=F+TS    =    -300.76962507 Ry

     The total energy is F=E-TS. E is the sum of the following terms:
     one-electron contribution =   -2924.64105974 Ry
     hartree contribution      =    1431.85074220 Ry
     xc contribution           =     -72.72548706 Ry
     ewald contribution        =    1152.36839317 Ry
     one-center paw contrib.   =       1.76500718 Ry
      -> PAW hartree energy AE =       7.41288056 Ry
      -> PAW hartree energy PS =      -7.18993048 Ry
      -> PAW xc energy AE      =      -3.48168206 Ry
      -> PAW xc energy PS      =       3.34705750 Ry
      -> total E_H with PAW    =    1432.07369228 Ry
      -> total E_XC with PAW   =     -72.86011162 Ry
     pot.stat. contrib. (-muN) =       0.57385790 Ry
     electrostatic embedding   =      -3.69115835 Ry
     cavitation energy         =       0.02127563 Ry
     electrolyte free energy   =      -0.05087942 Ry
     correction to one-el term =     113.75968343 Ry

     WARNING: you are using the parabolic pbc correction;
              the potential shift above must be added to
              band and Fermi energies.

     convergence has been achieved in  11 iterations
     The dielectric solvent contribution to forces
     atom    1 type  1   force =     0.00000000   -0.00884099   -0.09412282
     atom    2 type  1   force =     0.00000000    0.00367265    0.00034387
     atom    3 type  1   force =     0.00000000    0.00828751    0.02994407
     atom    4 type  1   force =     0.00000000   -0.03385428    0.07963972
     atom    5 type  1   force =    -0.00000000   -0.01376880   -0.01831710
     atom    6 type  1   force =     0.00000010   -0.00367783   -0.00044188
     atom    7 type  1   force =    -0.00000032    0.00882650    0.09404308
     atom    8 type  1   force =    -0.00000042    0.01385916    0.01826908
     atom    9 type  1   force =     0.00000038    0.03383906   -0.07977645
     atom   10 type  1   force =     0.00000003   -0.00825366   -0.02998156
     atom   11 type  1   force =    -0.00000000   -0.00884126   -0.09412248
     atom   12 type  1   force =    -0.00000000    0.00367244    0.00034440
     atom   13 type  1   force =    -0.00000000    0.00828792    0.02994480
     atom   14 type  1   force =    -0.00000000   -0.03385448    0.07963898
     atom   15 type  1   force =    -0.00000000   -0.01376860   -0.01831255
     atom   16 type  1   force =    -0.00000010   -0.00367783   -0.00044188
     atom   17 type  1   force =     0.00000032    0.00882650    0.09404309
     atom   18 type  1   force =     0.00000041    0.01385916    0.01826909
     atom   19 type  1   force =    -0.00000038    0.03383907   -0.07977645
     atom   20 type  1   force =    -0.00000003   -0.00825367   -0.02998156

     Forces acting on atoms (cartesian axes, Ry/au):

     atom    1 type  1   force =     0.00000000   -0.00003209   -0.00009715
     atom    2 type  1   force =     0.00000000    0.00023529   -0.00000957
     atom    3 type  1   force =     0.00000000    0.00010833    0.00004286
     atom    4 type  1   force =     0.00000000    0.00033946    0.00028442
     atom    5 type  1   force =     0.00000000   -0.00015047   -0.00000455
     atom    6 type  1   force =    -0.00000062   -0.00023750    0.00002227
     atom    7 type  1   force =     0.00000033    0.00004330    0.00010121
     atom    8 type  1   force =    -0.00000013    0.00018798   -0.00012185
     atom    9 type  1   force =     0.00000004   -0.00031890   -0.00029501
     atom   10 type  1   force =     0.00000105   -0.00017545    0.00007737
     atom   11 type  1   force =     0.00000000   -0.00003244   -0.00009687
     atom   12 type  1   force =     0.00000000    0.00023624   -0.00000941
     atom   13 type  1   force =     0.00000000    0.00010693    0.00004379
     atom   14 type  1   force =     0.00000000    0.00034008    0.00028431
     atom   15 type  1   force =     0.00000000   -0.00015022   -0.00000580
     atom   16 type  1   force =     0.00000062   -0.00023750    0.00002227
     atom   17 type  1   force =    -0.00000033    0.00004330    0.00010121
     atom   18 type  1   force =     0.00000013    0.00018798   -0.00012185
     atom   19 type  1   force =    -0.00000004   -0.00031890   -0.00029501
     atom   20 type  1   force =    -0.00000105   -0.00017545    0.00007737
     The non-local contrib.  to forces
     atom    1 type  1   force =     0.00000000    0.00066506    0.02821890
     atom    2 type  1   force =     0.00000000   -0.00048178   -0.00104730
     atom    3 type  1   force =     0.00000000   -0.00186125    0.00382769
     atom    4 type  1   force =     0.00000000    0.01067929   -0.02368598
     atom    5 type  1   force =     0.00000000    0.00949349    0.03724350
     atom    6 type  1   force =    -0.00000089    0.00052690    0.00109044
     atom    7 type  1   force =     0.00000077   -0.00071615   -0.02819385
     atom    8 type  1   force =    -0.00000010   -0.00951074   -0.03733684
     atom    9 type  1   force =     0.00000002   -0.01059944    0.02365775
     atom   10 type  1   force =     0.00000152    0.00182521   -0.00377350
     atom   11 type  1   force =     0.00000000    0.00066361    0.02821895
     atom   12 type  1   force =     0.00000000   -0.00047986   -0.00104721
     atom   13 type  1   force =     0.00000000   -0.00186251    0.00382741
     atom   14 type  1   force =     0.00000000    0.01068059   -0.02368717
     atom   15 type  1   force =     0.00000000    0.00949379    0.03724353
     atom   16 type  1   force =     0.00000089    0.00052690    0.00109044
     atom   17 type  1   force =    -0.00000077   -0.00071615   -0.02819385
     atom   18 type  1   force =     0.00000010   -0.00951074   -0.03733684
     atom   19 type  1   force =    -0.00000002   -0.01059944    0.02365775
     atom   20 type  1   force =    -0.00000152    0.00182521   -0.00377350
     The ionic contribution  to forces
     atom    1 type  1   force =    -0.00000002    0.10686065    5.75111780
     atom    2 type  1   force =    -0.00000002   -0.06484997    0.43461262
     atom    3 type  1   force =    -0.00000003   -0.08162342   -2.81155182
     atom    4 type  1   force =    -0.00000002    0.31682186   -6.50154950
     atom    5 type  1   force =    -0.00000001    0.15409360    8.05734231
     atom    6 type  1   force =    -0.00001390    0.06571980   -0.43163813
     atom    7 type  1   force =     0.00001232   -0.10790237   -5.74881247
     atom    8 type  1   force =    -0.00000099   -0.15377006   -8.05845343
     atom    9 type  1   force =    -0.00000031   -0.31507694    6.50120885
     atom   10 type  1   force =     0.00002545    0.07972455    2.80775810
     atom   11 type  1   force =     0.00000001    0.10684559    5.75112293
     atom   12 type  1   force =     0.00000001   -0.06481972    0.43458274
     atom   13 type  1   force =     0.00000002   -0.08165464   -2.81159087
     atom   14 type  1   force =     0.00000001    0.31683739   -6.50158679
     atom   15 type  1   force =     0.00000001    0.15409871    8.05737477
     atom   16 type  1   force =     0.00001391    0.06571980   -0.43163815
     atom   17 type  1   force =    -0.00001232   -0.10790237   -5.74881244
     atom   18 type  1   force =     0.00000099   -0.15377006   -8.05845339
     atom   19 type  1   force =     0.00000031   -0.31507695    6.50120882
     atom   20 type  1   force =    -0.00002544    0.07972455    2.80775805
     The local contribution  to forces
     atom    1 type  1   force =     0.00000349   -0.09871698   -5.68531188
     atom    2 type  1   force =     0.00000349    0.06189439   -0.43391902
     atom    3 type  1   force =     0.00000290    0.07530517    2.77782330
     atom    4 type  1   force =     0.00000407   -0.29330609    6.44588098
     atom    5 type  1   force =     0.00000408   -0.14996911   -8.07627254
     atom    6 type  1   force =     0.00001876   -0.06280661    0.43101158
     atom    7 type  1   force =    -0.00000802    0.09983532    5.68306507
     atom    8 type  1   force =     0.00000608    0.14960949    8.07740080
     atom    9 type  1   force =     0.00000408    0.29151733   -6.44538692
     atom   10 type  1   force =    -0.00002154   -0.07347169   -2.77392667
     atom   11 type  1   force =     0.00000442   -0.09870056   -5.68531713
     atom   12 type  1   force =     0.00000441    0.06186338   -0.43388960
     atom   13 type  1   force =     0.00000557    0.07533583    2.77786284
     atom   14 type  1   force =     0.00000500   -0.29332208    6.44592008
     atom   15 type  1   force =     0.00000384   -0.14997448   -8.07631086
     atom   16 type  1   force =    -0.00000936   -0.06280603    0.43101219
     atom   17 type  1   force =     0.00001685    0.09983532    5.68306446
     atom   18 type  1   force =     0.00000333    0.14961008    8.07739961
     atom   19 type  1   force =     0.00000417    0.29151732   -6.44538632
     atom   20 type  1   force =     0.00003035   -0.07347169   -2.77392546
     The core correction contribution to forces
     atom    1 type  1   force =     0.00000000    0.00000000    0.00000000
     atom    2 type  1   force =     0.00000000    0.00000000    0.00000000
     atom    3 type  1   force =     0.00000000    0.00000000    0.00000000
     atom    4 type  1   force =     0.00000000    0.00000000    0.00000000
     atom    5 type  1   force =     0.00000000    0.00000000    0.00000000
     atom    6 type  1   force =     0.00000000    0.00000000    0.00000000
     atom    7 type  1   force =     0.00000000    0.00000000    0.00000000
     atom    8 type  1   force =     0.00000000    0.00000000    0.00000000
     atom    9 type  1   force =     0.00000000    0.00000000    0.00000000
     atom   10 type  1   force =     0.00000000    0.00000000    0.00000000
     atom   11 type  1   force =     0.00000000    0.00000000    0.00000000
     atom   12 type  1   force =     0.00000000    0.00000000    0.00000000
     atom   13 type  1   force =     0.00000000    0.00000000    0.00000000
     atom   14 type  1   force =     0.00000000    0.00000000    0.00000000
     atom   15 type  1   force =     0.00000000    0.00000000    0.00000000
     atom   16 type  1   force =     0.00000000    0.00000000    0.00000000
     atom   17 type  1   force =     0.00000000    0.00000000    0.00000000
     atom   18 type  1   force =     0.00000000    0.00000000    0.00000000
     atom   19 type  1   force =     0.00000000    0.00000000    0.00000000
     atom   20 type  1   force =     0.00000000    0.00000000    0.00000000
     The Hubbard contrib.    to forces
     atom    1 type  1   force =     0.00000000    0.00000000    0.00000000
     atom    2 type  1   force =     0.00000000    0.00000000    0.00000000
     atom    3 type  1   force =     0.00000000    0.00000000    0.00000000
     atom    4 type  1   force =     0.00000000    0.00000000    0.00000000
     atom    5 type  1   force =     0.00000000    0.00000000    0.00000000
     atom    6 type  1   force =     0.00000000    0.00000000    0.00000000
     atom    7 type  1   force =     0.00000000    0.00000000    0.00000000
     atom    8 type  1   force =     0.00000000    0.00000000    0.00000000
     atom    9 type  1   force =     0.00000000    0.00000000    0.00000000
     atom   10 type  1   force =     0.00000000    0.00000000    0.00000000
     atom   11 type  1   force =     0.00000000    0.00000000    0.00000000
     atom   12 type  1   force =     0.00000000    0.00000000    0.00000000
     atom   13 type  1   force =     0.00000000    0.00000000    0.00000000
     atom   14 type  1   force =     0.00000000    0.00000000    0.00000000
     atom   15 type  1   force =     0.00000000    0.00000000    0.00000000
     atom   16 type  1   force =     0.00000000    0.00000000    0.00000000
     atom   17 type  1   force =     0.00000000    0.00000000    0.00000000
     atom   18 type  1   force =     0.00000000    0.00000000    0.00000000
     atom   19 type  1   force =     0.00000000    0.00000000    0.00000000
     atom   20 type  1   force =     0.00000000    0.00000000    0.00000000
     The SCF correction term to forces
     atom    1 type  1   force =     0.00000000    0.00000010    0.00000073
     atom    2 type  1   force =    -0.00000000   -0.00000007    0.00000015
     atom    3 type  1   force =    -0.00000000    0.00000025   -0.00000051
     atom    4 type  1   force =    -0.00000000   -0.00000140   -0.00000092
     atom    5 type  1   force =     0.00000000    0.00000028   -0.00000084
     atom    6 type  1   force =     0.00000001   -0.00000013   -0.00000016
     atom    7 type  1   force =    -0.00000000   -0.00000007   -0.00000046
     atom    8 type  1   force =     0.00000000   -0.00000024   -0.00000101
     atom    9 type  1   force =    -0.00000000    0.00000102    0.00000136
     atom   10 type  1   force =     0.00000001    0.00000007    0.00000030
     atom   11 type  1   force =    -0.00000000    0.00000011    0.00000074
     atom   12 type  1   force =    -0.00000000   -0.00000007    0.00000014
     atom   13 type  1   force =     0.00000000    0.00000025   -0.00000051
     atom   14 type  1   force =    -0.00000000   -0.00000140   -0.00000092
     atom   15 type  1   force =    -0.00000000    0.00000029   -0.00000082
     atom   16 type  1   force =    -0.00000001   -0.00000013   -0.00000016
     atom   17 type  1   force =     0.00000000   -0.00000007   -0.00000046
     atom   18 type  1   force =    -0.00000000   -0.00000024   -0.00000101
     atom   19 type  1   force =     0.00000000    0.00000102    0.00000136
     atom   20 type  1   force =    -0.00000001    0.00000007    0.00000030

     Total force =     0.001134     Total SCF correction =     0.000004
     Energy error            =      1.7E-06 Ry
     Gradient error          =      3.4E-04 Ry/Bohr

     bfgs converged in  26 scf cycles and  25 bfgs steps
     (criteria: energy <  1.0E-05 Ry, force <  3.9E-04 Ry/Bohr)

     End of BFGS Geometry Optimization

     Final energy             =    -300.7697137357 Ry

     File ./Li/Lithium.bfgs deleted, as requested
Begin final coordinates

ATOMIC_POSITIONS (angstrom)
Li              -0.0000000600        3.0638023869       25.8067729781
Li              -0.0000000600        6.1909614274       23.8105413090
Li              -0.0000000500        1.5218492773       22.4926324630
Li              -0.0000000700        4.4127541937       21.0107666602
Li              -0.0000000700        0.2385934710       27.0593594375
Li               1.7175900327        3.7955188988       23.4060974192
Li               1.7175688475        6.9212004943       21.4102638776
Li               1.7175729222        2.0642580532       20.1581193745
Li               1.7175833033        5.5719636196       26.2056181693
Li               1.7175716046        0.7846840430       24.7205840519
Li               3.4351561700        3.0637995621       25.8067740624
Li               3.4351561700        6.1909578328       23.8105288783
Li               3.4351561500        1.5218655134       22.4926101319
Li               3.4351561600        4.4127503924       21.0107521864
Li               3.4351561800        0.2385954379       27.0593979708
Li               5.1527222973        3.7955188888       23.4060974092
Li               5.1527434925        6.9212004943       21.4102638876
Li               5.1527394078        2.0642580432       20.1581193944
Li               5.1527290467        5.5719636196       26.2056181593
Li               5.1527407354        0.7846840430       24.7205840319
End final coordinates

     Writing all to output data dir ./Li/Lithium.save/ :
     XML data file

     General routines

     Parallel routines

     PAW routines

     Environ routines

   This run was terminated on:  18: 9:46   3Jan2025

   JOB DONE.