     Program PWSCF v.7.4 starts on  3Jan2025 at 11:38:28

     Reading input from espresso.pwi
Warning: card &CELL ignored
Warning: card    PRESS_CONV_THR   = 0.1 ignored
Warning: card    CELL_DOFREE      = 'ALL' ignored
Warning: card / ignored
Warning: card &FCP ignored
Warning: card / ignored
Warning: card &RISM ignored
Warning: card / ignored

     Current dimensions of program PWSCF are:
     Max number of different atomic species (ntypx) = 10
     Max number of k-points (npk) =  40000
     Max angular momentum in pseudopotentials (lmaxx) =  4

     IMPORTANT: XC functional enforced from input :
     Exchange-correlation= PBE
                           (   1   4   3   4   0   0   0)
     Any further DFT definition will be discarded
     Please, verify this is what you really want

     Reading input from environ.in:
     * using ionic solvent mode
     * setting boundary derivatives method to SSCS default
     * setting electrolyte-boundary derivatives method to SSCS default

Environ Warning (1001): card EOF ignored

     Found identity + (  0.5000 -0.0000 -0.0000) symmetry
     This is a supercell, fractional translations are disabled

     K-points division:     npool     =       2
     R & G space division:  proc/nbgrp/npool/nimage =     256
     Subspace diagonalization in iterative solution of the eigenvalue problem:
     a serial algorithm will be used

     Using Slab Decomposition

     bravais-lattice index     =            8
     lattice parameter (alat)  =      12.9830  a.u.
     unit-cell volume          =   29886.2289 (a.u.)^3
     number of atoms/cell      =           52
     number of atomic types    =            1
     number of electrons       =       156.00
     number of Kohn-Sham states=          117
     kinetic-energy cutoff     =      80.0000  Ry
     charge density cutoff     =     800.0000  Ry
     scf convergence threshold =      1.0E-06
     mixing beta               =       0.2000
     number of iterations used =            8  local-TF  mixing
     energy convergence thresh.=      1.0E-05
     force convergence thresh. =      3.9E-04
     Exchange-correlation= PBE
                           (   1   4   3   4   0   0   0)
     nstep                     =          999

                                  Environ Setup Summary

          O. Andreussi, I. Dabo and N. Marzari, J. Chem. Phys. 136, 064102 (2012)
          F. Nattino, M. Truscott, N. Marzari, and O. Andreussi, J. Chem. Phys. 150, 041722 (2019)

     in publications or presentations arising from this work.

     Parameters

     compensation onset threshold      =               0.1000E+00
     static permittivity               =                    89.90
     surface tension in input (dyn/cm) =                    37.30
     surface tension in internal units =               0.4792E-04

     Solvent Boundary

     solvent mode                      =                    ionic
     derivatives method                =                   lowmem
     electrolyte derivatives method    =                   lowmem
     numerical core for derivatives    =                      fft
     switching function adopted        =                     SCCS
     density limit for vacuum region   =               0.5000E-02
     density limit for bulk solvent    =               0.1000E-03
     soft-sphere radius mode           =                    bondi
     soft-sphere softness              =                     0.50
     alpha                             =                     1.32

     Electrostatic Setup

     electrostatic problem to solve    =                    modpb
     numerical solver adopted          =                   newton
     type of auxiliary density adopted =                     none
     numerical core for poisson        =                      fft
     adopting a nested solver scheme
     inner solver                      =                       cg
     inner core                        =                      fft
     type of pbc corrections           =                parabolic
     numerical core for corrections    =                      1da

     >>>>> Grand-Canonical SCF is activated <<<<<
     Initial Total Charge  =     0.000000 e
     Target Fermi Energy   =    -3.404000 eV
     Thr. of Fermi Energy  =     0.001000 eV
     Wave-shift of Kerker  =     0.400000 bohr^-1
     Wave-shift of Hartree =     1.500000 bohr^-1
     Mixing Rate of Fermi  =     0.050000

     celldm(1)=  12.983009  celldm(2)=   1.802776  celldm(3)=   7.575360
     celldm(4)=   0.000000  celldm(5)=   0.000000  celldm(6)=   0.000000

     crystal axes: (cart. coord. in units of alat)
               a(1) = (   1.000000   0.000000   0.000000 )
               a(2) = (   0.000000   1.802776   0.000000 )
               a(3) = (   0.000000   0.000000   7.575360 )

     reciprocal axes: (cart. coord. in units 2 pi/alat)
               b(1) = (  1.000000  0.000000  0.000000 )
               b(2) = (  0.000000  0.554700  0.000000 )
               b(3) = (  0.000000  0.000000  0.132007 )

     PseudoPot. # 1 for Li read from file:
     /work/e89/e89/ba3g18/Repos/Pseudopotentials/Pslibrary/Li.pbe-sl-kjpaw_psl.1.0.0.UPF
     MD5 check sum: 3f4d2cafebb47c6c3aa8ed472e6f074d
     Pseudo is Projector augmented-wave, Zval =  3.0
     Generated using 'atomic' code by A. Dal Corso  v.7.4
     Shape of augmentation charge: PSQ
     Using radial grid of 1017 points,  4 beta functions with:
                l(1) =   0
                l(2) =   0
                l(3) =   1
                l(4) =   1
     Q(r) pseudized with 0 coefficients

     atomic species   valence    mass     pseudopotential
     Li                3.00     6.94000     Li( 1.00)

      2 Sym. Ops. (no inversion) found

                                    s                        frac. trans.

      isym =  1     identity

 cryst.   s( 1) = (     1          0          0      )
                  (     0          1          0      )
                  (     0          0          1      )

 cart.    s( 1) = (  1.0000000  0.0000000  0.0000000 )
                  (  0.0000000  1.0000000  0.0000000 )
                  (  0.0000000  0.0000000  1.0000000 )

      isym =  2     inv. 180 deg rotation - cart. axis [1,0,0]

 cryst.   s( 2) = (    -1          0          0      )
                  (     0          1          0      )
                  (     0          0          1      )

 cart.    s( 2) = ( -1.0000000  0.0000000  0.0000000 )
                  (  0.0000000  1.0000000  0.0000000 )
                  (  0.0000000  0.0000000  1.0000000 )

     point group C_s (m)
     there are  2 classes
     the character table:

       E     s
A'     1.00  1.00
A''    1.00 -1.00

     the symmetry operations in each class and the name of the first element:

     E        1
          identity
     s        2
          inv. 180 deg rotation - cart. axis [1,0,0]

   Cartesian axes

     site n.     atom                  positions (alat units)
         1        Li     tau(   1) = (  -0.0000000   1.1408627   4.5290013  )
         2        Li     tau(   2) = (  -0.0000000   1.5083429   4.2831397  )
         3        Li     tau(   3) = (  -0.0000000   0.4033906   4.3119646  )
         4        Li     tau(   4) = (  -0.0000000   0.8242923   4.1276752  )
         5        Li     tau(   5) = (  -0.0000000   1.2464047   3.8146454  )
         6        Li     tau(   6) = (  -0.0000000   1.6573967   3.5919490  )
         7        Li     tau(   7) = (  -0.0000000   0.1273960   3.9643992  )
         8        Li     tau(   8) = (  -0.0000000   0.5703469   3.6387473  )
         9        Li     tau(   9) = (  -0.0000000   0.9790287   3.3980843  )
        10        Li     tau(  10) = (  -0.0000000   1.4171604   3.0971784  )
        11        Li     tau(  11) = (  -0.0000000   0.2936256   3.2481915  )
        12        Li     tau(  12) = (  -0.0000000   0.5994817   2.9363953  )
        13        Li     tau(  13) = (  -0.0000000   0.1753817   4.6790279  )
        14        Li     tau(  14) = (   0.2500000   1.1704332   4.1772763  )
        15        Li     tau(  15) = (   0.2500000   1.5791168   3.9366146  )
        16        Li     tau(  16) = (   0.2500000   0.4920655   3.9834128  )
        17        Li     tau(  17) = (   0.2500000   0.9030598   3.7607165  )
        18        Li     tau(  18) = (   0.2500000   1.3251712   3.4476865  )
        19        Li     tau(  19) = (   0.2500000   1.7460729   3.2633963  )
        20        Li     tau(  20) = (   0.2500000   0.2192919   3.6109622  )
        21        Li     tau(  21) = (   0.2500000   0.6411212   3.2922229  )
        22        Li     tau(  22) = (   0.2500000   1.0086003   3.0463611  )
        23        Li     tau(  23) = (   0.2500000   1.5499835   4.6389663  )
        24        Li     tau(  24) = (   0.2500000   0.1713057   2.8963340  )
        25        Li     tau(  25) = (   0.2500000   0.7323006   4.4781832  )
        26        Li     tau(  26) = (   0.2500000   0.0530606   4.3271700  )
        27        Li     tau(  27) = (   0.5000000   1.1408627   4.5290013  )
        28        Li     tau(  28) = (   0.5000000   1.5083430   4.2831397  )
        29        Li     tau(  29) = (   0.5000000   0.4033905   4.3119647  )
        30        Li     tau(  30) = (   0.5000000   0.8242923   4.1276752  )
        31        Li     tau(  31) = (   0.5000000   1.2464047   3.8146454  )
        32        Li     tau(  32) = (   0.5000000   1.6573967   3.5919490  )
        33        Li     tau(  33) = (   0.5000000   0.1273960   3.9643992  )
        34        Li     tau(  34) = (   0.5000000   0.5703469   3.6387474  )
        35        Li     tau(  35) = (   0.5000000   0.9790288   3.3980843  )
        36        Li     tau(  36) = (   0.5000000   1.4171604   3.0971785  )
        37        Li     tau(  37) = (   0.5000000   0.2936255   3.2481915  )
        38        Li     tau(  38) = (   0.5000000   0.5994817   2.9363952  )
        39        Li     tau(  39) = (   0.5000000   0.1753816   4.6790278  )
        40        Li     tau(  40) = (   0.7500000   1.1704332   4.1772763  )
        41        Li     tau(  41) = (   0.7500000   1.5791168   3.9366146  )
        42        Li     tau(  42) = (   0.7500000   0.4920655   3.9834128  )
        43        Li     tau(  43) = (   0.7500000   0.9030598   3.7607165  )
        44        Li     tau(  44) = (   0.7500000   1.3251712   3.4476865  )
        45        Li     tau(  45) = (   0.7500000   1.7460729   3.2633963  )
        46        Li     tau(  46) = (   0.7500000   0.2192919   3.6109622  )
        47        Li     tau(  47) = (   0.7500000   0.6411212   3.2922229  )
        48        Li     tau(  48) = (   0.7500000   1.0086003   3.0463611  )
        49        Li     tau(  49) = (   0.7500000   1.5499835   4.6389663  )
        50        Li     tau(  50) = (   0.7500000   0.1713057   2.8963340  )
        51        Li     tau(  51) = (   0.7500000   0.7323006   4.4781832  )
        52        Li     tau(  52) = (   0.7500000   0.0530606   4.3271700  )

   Crystallographic axes

     site n.     atom                  positions (cryst. coord.)
         1        Li     tau(   1) = (  0.0000000  0.6328366  0.5978596  )
[...]
     atom   49 type  1   force =     0.00000076    0.34753569  -12.71944357
     atom   50 type  1   force =     0.00000094    0.59770542   12.95369934
     atom   51 type  1   force =     0.00000088   -0.01345067  -11.30847965
     atom   52 type  1   force =     0.00000055   -0.18039347   -8.41906017
     The core correction contribution to forces
     atom    1 type  1   force =     0.00000000    0.00000000    0.00000000
     atom    2 type  1   force =     0.00000000    0.00000000    0.00000000
     atom    3 type  1   force =     0.00000000    0.00000000    0.00000000
     atom    4 type  1   force =     0.00000000    0.00000000    0.00000000
     atom    5 type  1   force =     0.00000000    0.00000000    0.00000000
     atom    6 type  1   force =     0.00000000    0.00000000    0.00000000
     atom    7 type  1   force =     0.00000000    0.00000000    0.00000000
     atom    8 type  1   force =     0.00000000    0.00000000    0.00000000
     atom    9 type  1   force =     0.00000000    0.00000000    0.00000000
     atom   10 type  1   force =     0.00000000    0.00000000    0.00000000
     atom   11 type  1   force =     0.00000000    0.00000000    0.00000000
     atom   12 type  1   force =     0.00000000    0.00000000    0.00000000
     atom   13 type  1   force =     0.00000000    0.00000000    0.00000000
     atom   14 type  1   force =     0.00000000    0.00000000    0.00000000
     atom   15 type  1   force =     0.00000000    0.00000000    0.00000000
     atom   16 type  1   force =     0.00000000    0.00000000    0.00000000
     atom   17 type  1   force =     0.00000000    0.00000000    0.00000000
     atom   18 type  1   force =     0.00000000    0.00000000    0.00000000
     atom   19 type  1   force =     0.00000000    0.00000000    0.00000000
     atom   20 type  1   force =     0.00000000    0.00000000    0.00000000
     atom   21 type  1   force =     0.00000000    0.00000000    0.00000000
     atom   22 type  1   force =     0.00000000    0.00000000    0.00000000
     atom   23 type  1   force =     0.00000000    0.00000000    0.00000000
     atom   24 type  1   force =     0.00000000    0.00000000    0.00000000
     atom   25 type  1   force =     0.00000000    0.00000000    0.00000000
     atom   26 type  1   force =     0.00000000    0.00000000    0.00000000
     atom   27 type  1   force =     0.00000000    0.00000000    0.00000000
     atom   28 type  1   force =     0.00000000    0.00000000    0.00000000
     atom   29 type  1   force =     0.00000000    0.00000000    0.00000000
     atom   30 type  1   force =     0.00000000    0.00000000    0.00000000
     atom   31 type  1   force =     0.00000000    0.00000000    0.00000000
     atom   32 type  1   force =     0.00000000    0.00000000    0.00000000
     atom   33 type  1   force =     0.00000000    0.00000000    0.00000000
     atom   34 type  1   force =     0.00000000    0.00000000    0.00000000
     atom   35 type  1   force =     0.00000000    0.00000000    0.00000000
     atom   36 type  1   force =     0.00000000    0.00000000    0.00000000
     atom   37 type  1   force =     0.00000000    0.00000000    0.00000000
     atom   38 type  1   force =     0.00000000    0.00000000    0.00000000
     atom   39 type  1   force =     0.00000000    0.00000000    0.00000000
     atom   40 type  1   force =     0.00000000    0.00000000    0.00000000
     atom   41 type  1   force =     0.00000000    0.00000000    0.00000000
     atom   42 type  1   force =     0.00000000    0.00000000    0.00000000
     atom   43 type  1   force =     0.00000000    0.00000000    0.00000000
     atom   44 type  1   force =     0.00000000    0.00000000    0.00000000
     atom   45 type  1   force =     0.00000000    0.00000000    0.00000000
     atom   46 type  1   force =     0.00000000    0.00000000    0.00000000
     atom   47 type  1   force =     0.00000000    0.00000000    0.00000000
     atom   48 type  1   force =     0.00000000    0.00000000    0.00000000
     atom   49 type  1   force =     0.00000000    0.00000000    0.00000000
     atom   50 type  1   force =     0.00000000    0.00000000    0.00000000
     atom   51 type  1   force =     0.00000000    0.00000000    0.00000000
     atom   52 type  1   force =     0.00000000    0.00000000    0.00000000
     The Hubbard contrib.    to forces
     atom    1 type  1   force =     0.00000000    0.00000000    0.00000000
     atom    2 type  1   force =     0.00000000    0.00000000    0.00000000
     atom    3 type  1   force =     0.00000000    0.00000000    0.00000000
     atom    4 type  1   force =     0.00000000    0.00000000    0.00000000
     atom    5 type  1   force =     0.00000000    0.00000000    0.00000000
     atom    6 type  1   force =     0.00000000    0.00000000    0.00000000
     atom    7 type  1   force =     0.00000000    0.00000000    0.00000000
     atom    8 type  1   force =     0.00000000    0.00000000    0.00000000
     atom    9 type  1   force =     0.00000000    0.00000000    0.00000000
     atom   10 type  1   force =     0.00000000    0.00000000    0.00000000
     atom   11 type  1   force =     0.00000000    0.00000000    0.00000000
     atom   12 type  1   force =     0.00000000    0.00000000    0.00000000
     atom   13 type  1   force =     0.00000000    0.00000000    0.00000000
     atom   14 type  1   force =     0.00000000    0.00000000    0.00000000
     atom   15 type  1   force =     0.00000000    0.00000000    0.00000000
     atom   16 type  1   force =     0.00000000    0.00000000    0.00000000
     atom   17 type  1   force =     0.00000000    0.00000000    0.00000000
     atom   18 type  1   force =     0.00000000    0.00000000    0.00000000
     atom   19 type  1   force =     0.00000000    0.00000000    0.00000000
     atom   20 type  1   force =     0.00000000    0.00000000    0.00000000
     atom   21 type  1   force =     0.00000000    0.00000000    0.00000000
     atom   22 type  1   force =     0.00000000    0.00000000    0.00000000
     atom   23 type  1   force =     0.00000000    0.00000000    0.00000000
     atom   24 type  1   force =     0.00000000    0.00000000    0.00000000
     atom   25 type  1   force =     0.00000000    0.00000000    0.00000000
     atom   26 type  1   force =     0.00000000    0.00000000    0.00000000
     atom   27 type  1   force =     0.00000000    0.00000000    0.00000000
     atom   28 type  1   force =     0.00000000    0.00000000    0.00000000
     atom   29 type  1   force =     0.00000000    0.00000000    0.00000000
     atom   30 type  1   force =     0.00000000    0.00000000    0.00000000
     atom   31 type  1   force =     0.00000000    0.00000000    0.00000000
     atom   32 type  1   force =     0.00000000    0.00000000    0.00000000
     atom   33 type  1   force =     0.00000000    0.00000000    0.00000000
     atom   34 type  1   force =     0.00000000    0.00000000    0.00000000
     atom   35 type  1   force =     0.00000000    0.00000000    0.00000000
     atom   36 type  1   force =     0.00000000    0.00000000    0.00000000
     atom   37 type  1   force =     0.00000000    0.00000000    0.00000000
     atom   38 type  1   force =     0.00000000    0.00000000    0.00000000
     atom   39 type  1   force =     0.00000000    0.00000000    0.00000000
     atom   40 type  1   force =     0.00000000    0.00000000    0.00000000
     atom   41 type  1   force =     0.00000000    0.00000000    0.00000000
     atom   42 type  1   force =     0.00000000    0.00000000    0.00000000
     atom   43 type  1   force =     0.00000000    0.00000000    0.00000000
     atom   44 type  1   force =     0.00000000    0.00000000    0.00000000
     atom   45 type  1   force =     0.00000000    0.00000000    0.00000000
     atom   46 type  1   force =     0.00000000    0.00000000    0.00000000
     atom   47 type  1   force =     0.00000000    0.00000000    0.00000000
     atom   48 type  1   force =     0.00000000    0.00000000    0.00000000
     atom   49 type  1   force =     0.00000000    0.00000000    0.00000000
     atom   50 type  1   force =     0.00000000    0.00000000    0.00000000
     atom   51 type  1   force =     0.00000000    0.00000000    0.00000000
     atom   52 type  1   force =     0.00000000    0.00000000    0.00000000
     The SCF correction term to forces
     atom    1 type  1   force =    -0.00000000   -0.00000019   -0.00003532
     atom    2 type  1   force =     0.00000000   -0.00000491   -0.00000990
     atom    3 type  1   force =    -0.00000000    0.00000106   -0.00003880
     atom    4 type  1   force =    -0.00000000   -0.00002832    0.00002445
     atom    5 type  1   force =    -0.00000000    0.00002320   -0.00000306
     atom    6 type  1   force =     0.00000000    0.00000483   -0.00005172
     atom    7 type  1   force =     0.00000000    0.00001010    0.00003833
     atom    8 type  1   force =    -0.00000000   -0.00001625   -0.00003582
     atom    9 type  1   force =     0.00000000   -0.00000146   -0.00003081
     atom   10 type  1   force =    -0.00000000    0.00002503    0.00000662
     atom   11 type  1   force =    -0.00000000   -0.00001903   -0.00000174
     atom   12 type  1   force =    -0.00000000   -0.00001721    0.00002021
     atom   13 type  1   force =     0.00000000    0.00003384    0.00004058
     atom   14 type  1   force =     0.00000016    0.00000140    0.00002808
     atom   15 type  1   force =     0.00000004    0.00001610    0.00003287
     atom   16 type  1   force =    -0.00000019   -0.00000472    0.00004886
     atom   17 type  1   force =     0.00000002   -0.00002313    0.00000011
     atom   18 type  1   force =     0.00000002    0.00002820   -0.00002688
     atom   19 type  1   force =    -0.00000006   -0.00000107    0.00003665
     atom   20 type  1   force =    -0.00000010   -0.00001017   -0.00004088
     atom   21 type  1   force =    -0.00000005    0.00000518    0.00000770
     atom   22 type  1   force =    -0.00000003   -0.00000011    0.00003532
     atom   23 type  1   force =     0.00000003    0.00001753   -0.00002009
     atom   24 type  1   force =    -0.00000010   -0.00003429   -0.00004058
     atom   25 type  1   force =    -0.00000003   -0.00002530   -0.00000774
     atom   26 type  1   force =    -0.00000014    0.00001902   -0.00000025
     atom   27 type  1   force =     0.00000000   -0.00000006   -0.00003536
     atom   28 type  1   force =     0.00000000   -0.00000503   -0.00000991
     atom   29 type  1   force =     0.00000000    0.00000078   -0.00003851
     atom   30 type  1   force =     0.00000000   -0.00002793    0.00002428
     atom   31 type  1   force =     0.00000000    0.00002337   -0.00000281
     atom   32 type  1   force =     0.00000000    0.00000444   -0.00005171
     atom   33 type  1   force =     0.00000000    0.00000987    0.00003821
     atom   34 type  1   force =     0.00000000   -0.00001626   -0.00003576
     atom   35 type  1   force =     0.00000000   -0.00000108   -0.00003087
     atom   36 type  1   force =     0.00000000    0.00002517    0.00000682
     atom   37 type  1   force =    -0.00000000   -0.00001870   -0.00000140
     atom   38 type  1   force =    -0.00000000   -0.00001716    0.00002024
     atom   39 type  1   force =    -0.00000000    0.00003405    0.00004050
     atom   40 type  1   force =    -0.00000016    0.00000140    0.00002808
     atom   41 type  1   force =    -0.00000004    0.00001610    0.00003287
     atom   42 type  1   force =     0.00000019   -0.00000472    0.00004886
     atom   43 type  1   force =    -0.00000002   -0.00002313    0.00000010
     atom   44 type  1   force =    -0.00000002    0.00002820   -0.00002688
     atom   45 type  1   force =     0.00000006   -0.00000107    0.00003664
     atom   46 type  1   force =     0.00000010   -0.00001017   -0.00004088
     atom   47 type  1   force =     0.00000005    0.00000517    0.00000770
     atom   48 type  1   force =     0.00000003   -0.00000011    0.00003532
     atom   49 type  1   force =    -0.00000003    0.00001752   -0.00002010
     atom   50 type  1   force =     0.00000010   -0.00003429   -0.00004057
     atom   51 type  1   force =     0.00000003   -0.00002530   -0.00000774
     atom   52 type  1   force =     0.00000014    0.00001902   -0.00000025

     Total force =     0.001841     Total SCF correction =     0.000252
     SCF correction compared to forces is large: reduce conv_thr to get better values

     BFGS Geometry Optimization
     Energy error            =      3.4E-06 Ry
     Gradient error          =      3.8E-04 Ry/Bohr

     bfgs converged in   1 scf cycles and   0 bfgs steps
     (criteria: energy <  1.0E-05 Ry, force <  3.9E-04 Ry/Bohr)

     End of BFGS Geometry Optimization

     Final energy             =    -781.9866276668 Ry
Begin final coordinates

ATOMIC_POSITIONS (angstrom)
Li               0.0000000000        7.8380831617       31.1156544257
Li               0.0000000000       10.3627874016       29.4265080412
Li               0.0000000000        2.7714191471       29.6245445295
Li               0.0000000000        5.6631456397       28.3584181470
Li               0.0000000000        8.5631898981       26.2078061732
Li               0.0000000000       11.3868330732       24.6778122791
Li               0.0000000000        0.8752502271       27.2366612154
Li               0.0000000000        3.9184612595       24.9993312415
Li               0.0000000000        6.7262334361       23.3459008631
Li               0.0000000000        9.7363348536       21.2785837649
Li               0.0000000000        2.0172996559       22.3160905796
Li               0.0000000000        4.1186264506       20.1739529931
Li               0.0000000000        1.2049271672       32.1463838031
Li               1.7175783654        8.0412417386       28.6991937536
Li               1.7175781868       10.8490261207       27.0457721827
Li               1.7175779060        3.3806434801       27.3672904785
Li               1.7175781147        6.2043028010       25.8372976956
Li               1.7175781896        9.1043404285       23.6866834494
Li               1.7175781680       11.9960662569       22.4205520914
Li               1.7175781147        1.5066041413       24.8084388390
Li               1.7175780419        4.4047031741       22.6185998420
Li               1.7175781147        6.9293992724       20.9294524891
Li               1.7175782183       10.6488706939       31.8711481966
Li               1.7175781147        1.1769239808       19.8987198532
Li               1.7175781147        5.0311339113       30.7665179288
Li               1.7175780469        0.3645425809       29.7290097744
Li               3.4351562293        7.8380830718       31.1156543355
Li               3.4351562293       10.3627877662       29.4265082117
Li               3.4351562293        2.7714189080       29.6245446482
Li               3.4351562293        5.6631455256       28.3584181572
Li               3.4351562293        8.5631901128       26.2078059310
Li               3.4351562293       11.3868330166       24.6778121375
Li               3.4351562293        0.8752500776       27.2366613624
Li               3.4351562293        3.9184611580       24.9993316927
Li               3.4351562293        6.7262335777       23.3459008295
Li               3.4351562293        9.7363349046       21.2785839355
Li               3.4351562293        2.0172992197       22.3160906140
Li               3.4351562293        4.1186265487       20.1739525557
Li               3.4351562293        1.2049266070       32.1463832956
Li               5.1527340933        8.0412417386       28.6991937536
Li               5.1527342718       10.8490261207       27.0457721827
Li               5.1527345527        3.3806434801       27.3672904785
Li               5.1527343440        6.2043028010       25.8372976956
Li               5.1527342691        9.1043404285       23.6866834494
Li               5.1527342907       11.9960662569       22.4205520914
Li               5.1527343440        1.5066041413       24.8084388390
Li               5.1527344167        4.4047031741       22.6185998420
Li               5.1527343440        6.9293992724       20.9294524891
Li               5.1527342403       10.6488706939       31.8711481966
Li               5.1527343440        1.1769239808       19.8987198532
Li               5.1527343440        5.0311339113       30.7665179288
Li               5.1527344117        0.3645425809       29.7290097744
End final coordinates

     Writing all to output data dir ./Li/Lithium.save/ :
     XML data file

     General routines

     Parallel routines

     PAW routines

     Environ routines

   This run was terminated on:  12:20:14   3Jan2025

   JOB DONE.