     Program PWSCF v.7.4 starts on  4Jan2025 at 23:12:40
        Git branch: develop
        Last git commit: e877ff360aceba4b8d76ffc2fb1c70545fc5dd57
        Last git commit date: Sat Jan 4 12:56:15 2025 +0000
        Last git commit subject: Merge branch 'orthoU' into 'develop'

     Reading input from espresso.pwi
Warning: card &CELL ignored
Warning: card    PRESS_CONV_THR   = 0.1 ignored
Warning: card    CELL_DOFREE      = 'ALL' ignored
Warning: card / ignored
Warning: card &FCP ignored
Warning: card / ignored
Warning: card &RISM ignored
Warning: card / ignored

     Current dimensions of program PWSCF are:
     Max number of different atomic species (ntypx) = 10
     Max number of k-points (npk) =  40000
     Max angular momentum in pseudopotentials (lmaxx) =  4

     IMPORTANT: XC functional enforced from input :
     Exchange-correlation= PBE
                           (   1   4   3   4   0   0   0)
     Any further DFT definition will be discarded
     Please, verify this is what you really want

     Reading input from environ.in:
     * using ionic solvent mode
     * setting boundary derivatives method to SSCS default
     * setting electrolyte-boundary derivatives method to SSCS default

Environ Warning (1001): card EOF ignored

     K-points division:     npool     =       2
     R & G space division:  proc/nbgrp/npool/nimage =     180
     Subspace diagonalization in iterative solution of the eigenvalue problem:
     a serial algorithm will be used

     Using Slab Decomposition

     bravais-lattice index     =           14
     lattice parameter (alat)  =      11.2436  a.u.
     unit-cell volume          =   10615.2838 (a.u.)^3
     number of atoms/cell      =           16
     number of atomic types    =            1
     number of electrons       =        48.00
     number of Kohn-Sham states=           36
     kinetic-energy cutoff     =      80.0000  Ry
     charge density cutoff     =     800.0000  Ry
     scf convergence threshold =      1.0E-06
     mixing beta               =       0.2000
     number of iterations used =            8  local-TF  mixing
     energy convergence thresh.=      1.0E-05
     force convergence thresh. =      3.9E-04
     Exchange-correlation= PBE
                           (   1   4   3   4   0   0   0)
     nstep                     =          999

                                  Environ Setup Summary

          O. Andreussi, I. Dabo and N. Marzari, J. Chem. Phys. 136, 064102 (2012)
          F. Nattino, M. Truscott, N. Marzari, and O. Andreussi, J. Chem. Phys. 150, 041722 (2019)

     in publications or presentations arising from this work.

     Parameters

     compensation onset threshold      =               0.1000E+00
     static permittivity               =                    89.90
     surface tension in input (dyn/cm) =                    37.30
     surface tension in internal units =               0.4792E-04

     Solvent Boundary

     solvent mode                      =                    ionic
     derivatives method                =                   lowmem
     electrolyte derivatives method    =                   lowmem
     numerical core for derivatives    =                      fft
     switching function adopted        =                     SCCS
     density limit for vacuum region   =               0.5000E-02
     density limit for bulk solvent    =               0.1000E-03
     soft-sphere radius mode           =                    bondi
     soft-sphere softness              =                     0.50
     alpha                             =                     1.32

     Electrostatic Setup

     electrostatic problem to solve    =                    modpb
     numerical solver adopted          =                   newton
     type of auxiliary density adopted =                     none
     numerical core for poisson        =                      fft
     adopting a nested solver scheme
     inner solver                      =                       cg
     inner core                        =                      fft
     type of pbc corrections           =                parabolic
     numerical core for corrections    =                      1da

     >>>>> Grand-Canonical SCF is activated <<<<<
     Initial Total Charge  =     0.000000 e
     Target Fermi Energy   =    -3.904000 eV
     Thr. of Fermi Energy  =     0.001000 eV
     Wave-shift of Kerker  =     0.400000 bohr^-1
     Wave-shift of Hartree =     1.500000 bohr^-1
     Mixing Rate of Fermi  =     0.050000

     celldm(1)=  11.243615  celldm(2)=   1.000000  celldm(3)=   7.921182
     celldm(4)=   0.000000  celldm(5)=   0.000000  celldm(6)=  -0.333333

     crystal axes: (cart. coord. in units of alat)
               a(1) = (   1.000000   0.000000   0.000000 )
               a(2) = (  -0.333333   0.942809   0.000000 )
               a(3) = (   0.000000   0.000000   7.921182 )

     reciprocal axes: (cart. coord. in units 2 pi/alat)
               b(1) = (  1.000000  0.353553  0.000000 )
               b(2) = (  0.000000  1.060660  0.000000 )
               b(3) = (  0.000000  0.000000  0.126244 )

     PseudoPot. # 1 for Li read from file:
     /home/mmm1182/Repos/Pseudopotentials/pslibrary/Li.pbe-sl-kjpaw_psl.1.0.0.UPF
     MD5 check sum: f40bb4162937df3f7c561f1969c76545
     Pseudo is Projector augmented-wave, Zval =  3.0
     Generated using 'atomic' code by A. Dal Corso  v.7.3.1
     Shape of augmentation charge: PSQ
     Using radial grid of 1017 points,  4 beta functions with:
                l(1) =   0
                l(2) =   0
                l(3) =   1
                l(4) =   1
     Q(r) pseudized with 0 coefficients

     atomic species   valence    mass     pseudopotential
     Li                3.00     6.94000     Li( 1.00)

      2 Sym. Ops. (no inversion) found

                                    s                        frac. trans.

      isym =  1     identity

 cryst.   s( 1) = (     1          0          0      )
                  (     0          1          0      )
                  (     0          0          1      )

 cart.    s( 1) = (  1.0000000 -0.0000000  0.0000000 )
                  (  0.0000000  1.0000000  0.0000000 )
                  (  0.0000000  0.0000000  1.0000000 )

      isym =  2     180 deg rotation - cart. axis [0,0,1]

 cryst.   s( 2) = (    -1          0          0      )
                  (     0         -1          0      )
                  (     0          0          1      )

 cart.    s( 2) = ( -1.0000000  0.0000000  0.0000000 )
                  (  0.0000000 -1.0000000  0.0000000 )
                  (  0.0000000  0.0000000  1.0000000 )

     point group C_2  (2)
     there are  2 classes
     the character table:

       E     C2
A      1.00  1.00
B      1.00 -1.00

     the symmetry operations in each class and the name of the first element:

     E        1
          identity
     C2       2
          180 deg rotation - cart. axis [0,0,1]

   Cartesian axes

     site n.     atom                  positions (alat units)
         1        Li     tau(   1) = (   0.1666604   0.2357049   3.3648285  )
         2        Li     tau(   2) = (   0.3333333   0.4714046   3.7546210  )
         3        Li     tau(   3) = (   0.1666696   0.2356965   4.1665696  )
         4        Li     tau(   4) = (   0.3333333   0.4714046   4.5563165  )
         5        Li     tau(   5) = (   0.0000054   0.7071093   3.3648588  )
         6        Li     tau(   6) = (   0.1666667   0.9428090   3.7546314  )
         7        Li     tau(   7) = (  -0.0000046   0.7071021   4.1665811  )
         8        Li     tau(   8) = (   0.1666667   0.9428090   4.5563362  )
         9        Li     tau(   9) = (   0.6666613   0.2356998   3.3648588  )
        10        Li     tau(  10) = (   0.8333333   0.4714046   3.7546253  )
        11        Li     tau(  11) = (   0.6666713   0.2357070   4.1665811  )
        12        Li     tau(  12) = (   0.8333333   0.4714046   4.5563341  )
        13        Li     tau(  13) = (   0.5000063   0.7071042   3.3648285  )
        14        Li     tau(  14) = (   0.6666667   0.9428090   3.7546245  )
        15        Li     tau(  15) = (   0.4999970   0.7071125   4.1665696  )
        16        Li     tau(  16) = (   0.6666667   0.9428090   4.5563323  )

   Crystallographic axes

     site n.     atom                  positions (cryst. coord.)
         1        Li     tau(   1) = (  0.2499946  0.2500028  0.4247887  )
         2        Li     tau(   2) = (  0.4999999  0.5000001  0.4739976  )
         3        Li     tau(   3) = (  0.2500009  0.2499939  0.5260035  )
         4        Li     tau(   4) = (  0.4999999  0.5000001  0.5752066  )
         5        Li     tau(   5) = (  0.2500061  0.7500027  0.4247925  )
         6        Li     tau(   6) = (  0.4999997  1.0000001  0.4739989  )
         7        Li     tau(   7) = (  0.2499935  0.7499950  0.5260050  )
         8        Li     tau(   8) = (  0.4999997  1.0000000  0.5752091  )
         9        Li     tau(   9) = (  0.7499936  0.2499974  0.4247925  )
        10        Li     tau(  10) = (  0.9999999  0.5000001  0.4739981  )
        11        Li     tau(  11) = (  0.7500062  0.2500050  0.5260050  )
        12        Li     tau(  12) = (  0.9999999  0.5000001  0.5752089  )
        13        Li     tau(  13) = (  0.7500051  0.7499973  0.4247887  )
        14        Li     tau(  14) = (  0.9999997  1.0000000  0.4739980  )
        15        Li     tau(  15) = (  0.7499988  0.7500062  0.5260035  )
        16        Li     tau(  16) = (  0.9999997  1.0000000  0.5752086  )

     number of k points=    61  Marzari-Vanderbilt smearing, width (Ry)=  0.0100
                       cart. coord. in units 2pi/alat
        k(    1) = (   0.0000000   0.0000000   0.0000000), wk =   0.0165289
        k(    2) = (   0.0000000   0.0964237   0.0000000), wk =   0.0330579
        k(    3) = (   0.0000000   0.1928473   0.0000000), wk =   0.0330579
        k(    4) = (   0.0000000   0.2892710   0.0000000), wk =   0.0330579
        k(    5) = (   0.0000000   0.3856946   0.0000000), wk =   0.0330579
        k(    6) = (   0.0000000   0.4821183   0.0000000), wk =   0.0330579
        k(    7) = (   0.0909091   0.0321412   0.0000000), wk =   0.0330579
        k(    8) = (   0.0909091   0.1285648   0.0000000), wk =   0.0330579
        k(    9) = (   0.0909091   0.2249885   0.0000000), wk =   0.0330579
        k(   10) = (   0.0909091   0.3214122   0.0000000), wk =   0.0330579
        k(   11) = (   0.0909091   0.4178358   0.0000000), wk =   0.0330579
        k(   12) = (   0.0909091   0.5142595   0.0000000), wk =   0.0330579
        k(   13) = (   0.0909091  -0.4499771   0.0000000), wk =   0.0330579
        k(   14) = (   0.0909091  -0.3535534   0.0000000), wk =   0.0330579
        k(   15) = (   0.0909091  -0.2571298   0.0000000), wk =   0.0330579
        k(   16) = (   0.0909091  -0.1607061   0.0000000), wk =   0.0330579
        k(   17) = (   0.0909091  -0.0642825   0.0000000), wk =   0.0330579
        k(   18) = (   0.1818182   0.0642824   0.0000000), wk =   0.0330579
        k(   19) = (   0.1818182   0.1607060   0.0000000), wk =   0.0330579
[...]
     energy             new  =    -240.6155528496 Ry

     CASE: energy            _new < energy            _old

     new trust radius        =       0.0057665039 bohr
     new conv_thr            =            1.0E-12 Ry

ATOMIC_POSITIONS (angstrom)
Li               0.9916120786        1.4024040798       20.0105008239
Li               1.9832882700        2.8047934300       22.3385951949
Li               0.9916604097        1.4023668072       24.7913432419
Li               1.9832882800        2.8047934500       27.1193319972
Li               0.0000278296        4.2072080092       20.0106520614
Li               0.9916443500        5.6095863900       22.3386956368
Li              -0.0000151437        4.2071644705       24.7913953018
Li               0.9916443300        5.6095863500       27.1194367373
Li               3.9665487904        1.4023784608       20.0106521214
Li               4.9582206700        2.8047934200       22.3386651426
Li               3.9665917537        1.4024219695       24.7913953218
Li               4.9582206800        2.8047934400       27.1194480889
Li               2.9749645414        4.2071823902       20.0105007939
Li               3.9665767500        5.6095863800       22.3385933903
Li               2.9749162003        4.2072196328       24.7913432119
Li               3.9665767300        5.6095863300       27.1193949908

     Writing config-only to output data dir ./Li/Lithium.save/ :
     XML data file     NEW-OLD atomic charge density approx. for the potential

[...]

     Self-consistent Calculation

[...]

     Threshold (ethr) on eigenvalues was too large:
     Diagonalizing with lowered threshold

     Davidson diagonalization with overlap

[...]

     ethr =  1.10E-12,  avg # of iterations = 10.6

[...]

     add environment contribution to local potential

     total energy              =    -240.61556033 Ry
     estimated scf accuracy    <          1.4E-12 Ry

     total charge of GC-SCF    =       1.24429767 e
     the Fermi energy          =      -3.90395560 eV
                        (error :       0.00004440 eV)
     electrostatic embedding   =      -0.48706620 Ry
     cavitation energy         =       0.01235683 Ry
     electrolyte free energy   =      -0.00706839 Ry
     correction to one-el term =     -35.89240170 Ry

     iteration # 17     ecut=    80.00 Ry     beta= 0.20
     Davidson diagonalization with overlap

     c_bands:  1 eigenvalues not converged
     ethr =  1.00E-13,  avg # of iterations =  9.1

     negative rho (up, down):  2.587E-04 0.000E+00

     End of self-consistent calculation

[...]

          k = 0.4545 0.0643 0.0000 (128255 PWs)   bands (ev):

   -51.0461 -51.0461 -51.0443 -51.0443 -51.0378 -51.0378 -51.0373 -51.0373
   -50.3657 -50.3629 -50.3584 -50.3577 -50.3559 -50.3552 -50.3522 -50.3504
    -6.6294  -6.0922  -6.0031  -5.4825  -4.7053  -4.5060  -4.2108  -3.8886
    -3.5524  -3.0875  -2.8355  -2.6509  -2.6100  -2.5768  -2.4443  -1.9500
    -1.2586  -1.2128  -0.2561  -0.0229

     occupation numbers
     1.0000   1.0000   1.0000   1.0000   1.0000   1.0000   1.0000   1.0000
     1.0000   1.0000   1.0000   1.0000   1.0000   1.0000   1.0000   1.0000
     1.0000   1.0000   1.0000   1.0000   1.0000   1.0000   1.0220   0.3267
     0.0000   0.0000   0.0000   0.0000   0.0000   0.0000   0.0000   0.0000
     0.0000   0.0000   0.0000   0.0000

     the Fermi energy is    -3.9040 ev

!    total energy              =    -240.61556028 Ry
     total all-electron energy =      -240.615690 Ry
     estimated scf accuracy    <          7.5E-13 Ry

!    total charge of GC-SCF    =       1.24430642 e
     smearing contrib. (-TS)   =       0.00050664 Ry
     internal energy E=F+TS    =    -240.61606692 Ry

     The total energy is F=E-TS. E is the sum of the following terms:
     one-electron contribution =   -2411.51383258 Ry
     hartree contribution      =    1177.53294409 Ry
     xc contribution           =     -56.97256832 Ry
     ewald contribution        =    1085.65789632 Ry
     one-center paw contrib.   =       1.41098822 Ry
      -> PAW hartree energy AE =       7.38210594 Ry
      -> PAW hartree energy PS =      -7.15959109 Ry
      -> PAW xc energy AE      =      -3.47870566 Ry
      -> PAW xc energy PS      =       3.34433578 Ry
      -> total E_H with PAW    =    1177.75545894 Ry
      -> total E_XC with PAW   =     -57.10693820 Ry
     pot.stat. contrib. (-muN) =      -0.35703968 Ry
     electrostatic embedding   =      -0.48707376 Ry
     cavitation energy         =       0.01235683 Ry
     electrolyte free energy   =      -0.00706847 Ry
     correction to one-el term =     -35.89266958 Ry

     WARNING: you are using the parabolic pbc correction;
              the potential shift above must be added to
              band and Fermi energies.

     convergence has been achieved in  17 iterations
     The dielectric solvent contribution to forces
     atom    1 type  1   force =     0.00000003    0.00000015   -0.03964908
     atom    2 type  1   force =    -0.00000000    0.00000000   -0.01852332
     atom    3 type  1   force =     0.00000003    0.00000005    0.01852164
     atom    4 type  1   force =     0.00000000    0.00000001    0.03965176
     atom    5 type  1   force =    -0.00000000   -0.00000015   -0.03965290
     atom    6 type  1   force =     0.00000000   -0.00000000   -0.01852194
     atom    7 type  1   force =     0.00000004   -0.00000001    0.01852235
     atom    8 type  1   force =    -0.00000000   -0.00000001    0.03964922
     atom    9 type  1   force =     0.00000000    0.00000015   -0.03965289
     atom   10 type  1   force =     0.00000000    0.00000000   -0.01852245
     atom   11 type  1   force =    -0.00000004    0.00000001    0.01852234
     atom   12 type  1   force =    -0.00000000    0.00000001    0.03964897
     atom   13 type  1   force =    -0.00000003   -0.00000015   -0.03964908
     atom   14 type  1   force =     0.00000000   -0.00000000   -0.01852333
     atom   15 type  1   force =    -0.00000003   -0.00000005    0.01852164
     atom   16 type  1   force =    -0.00000000   -0.00000001    0.03965035

     Forces acting on atoms (cartesian axes, Ry/au):

     atom    1 type  1   force =     0.00000027   -0.00000001   -0.00038545
     atom    2 type  1   force =     0.00000000    0.00000000   -0.00022490
     atom    3 type  1   force =    -0.00000032    0.00000025    0.00022347
     atom    4 type  1   force =     0.00000000    0.00000000    0.00038700
     atom    5 type  1   force =    -0.00000021   -0.00000015   -0.00038564
     atom    6 type  1   force =     0.00000000    0.00000000   -0.00022479
     atom    7 type  1   force =     0.00000030    0.00000002    0.00022433
     atom    8 type  1   force =     0.00000000    0.00000000    0.00038611
     atom    9 type  1   force =     0.00000021    0.00000015   -0.00038564
     atom   10 type  1   force =     0.00000000    0.00000000   -0.00022444
     atom   11 type  1   force =    -0.00000030   -0.00000002    0.00022433
     atom   12 type  1   force =     0.00000000    0.00000000    0.00038687
     atom   13 type  1   force =    -0.00000027    0.00000001   -0.00038545
     atom   14 type  1   force =     0.00000000    0.00000000   -0.00022513
     atom   15 type  1   force =     0.00000032   -0.00000025    0.00022347
     atom   16 type  1   force =     0.00000000    0.00000000    0.00038585
     The non-local contrib.  to forces
     atom    1 type  1   force =    -0.00000031    0.00000095   -0.08555300
     atom    2 type  1   force =     0.00000000    0.00000000    0.00250150
     atom    3 type  1   force =     0.00000081   -0.00000039   -0.00250082
     atom    4 type  1   force =     0.00000000    0.00000000    0.08554502
     atom    5 type  1   force =     0.00000047   -0.00000064   -0.08554444
     atom    6 type  1   force =     0.00000000    0.00000000    0.00249755
     atom    7 type  1   force =    -0.00000045   -0.00000007   -0.00250124
     atom    8 type  1   force =     0.00000000    0.00000000    0.08555169
     atom    9 type  1   force =    -0.00000047    0.00000064   -0.08554444
     atom   10 type  1   force =     0.00000000    0.00000000    0.00250001
     atom   11 type  1   force =     0.00000045    0.00000007   -0.00250124
     atom   12 type  1   force =     0.00000000    0.00000000    0.08555191
     atom   13 type  1   force =     0.00000031   -0.00000095   -0.08555300
     atom   14 type  1   force =     0.00000000    0.00000000    0.00250019
     atom   15 type  1   force =    -0.00000081    0.00000039   -0.00250082
     atom   16 type  1   force =     0.00000000    0.00000000    0.08554850
     The ionic contribution  to forces
     atom    1 type  1   force =     0.00000449    0.00000406   -9.03440920
     atom    2 type  1   force =    -0.00000006   -0.00000007   -3.02049660
     atom    3 type  1   force =    -0.00000224    0.00000487    3.02031263
     atom    4 type  1   force =    -0.00000005   -0.00000011    9.03412839
     atom    5 type  1   force =    -0.00000095   -0.00000449   -9.03411121
     atom    6 type  1   force =     0.00000007    0.00000008   -3.02024097
     atom    7 type  1   force =     0.00000469   -0.00000006    3.02045743
     atom    8 type  1   force =     0.00000004    0.00000012    9.03432930
     atom    9 type  1   force =     0.00000092    0.00000447   -9.03411100
     atom   10 type  1   force =    -0.00000001   -0.00000005   -3.02031997
     atom   11 type  1   force =    -0.00000474    0.00000004    3.02045753
     atom   12 type  1   force =    -0.00000001   -0.00000011    9.03436036
     atom   13 type  1   force =    -0.00000452   -0.00000407   -9.03440937
     atom   14 type  1   force =     0.00000011    0.00000009   -3.02050330
     atom   15 type  1   force =     0.00000219   -0.00000490    3.02031252
     atom   16 type  1   force =     0.00000007    0.00000014    9.03424347
     The local contribution  to forces
     atom    1 type  1   force =     0.00005167   -0.00001572    9.15922322
     atom    2 type  1   force =     0.00005791   -0.00002187    3.03629453
     atom    3 type  1   force =     0.00005694   -0.00001397   -3.03611210
     atom    4 type  1   force =     0.00005734   -0.00002303   -9.15893633
     atom    5 type  1   force =     0.00005585   -0.00000536    9.15892280
     atom    6 type  1   force =     0.00010286   -0.00001645    3.03604154
     atom    7 type  1   force =     0.00005188   -0.00000952   -3.03625490
     atom    8 type  1   force =     0.00010406   -0.00001409   -9.15914226
     atom    9 type  1   force =     0.00005536   -0.00001571    9.15891917
     atom   10 type  1   force =     0.00005867   -0.00002129    3.03611891
     atom   11 type  1   force =     0.00005987   -0.00000983   -3.03625612
     atom   12 type  1   force =     0.00005810   -0.00002245   -9.15917253
     atom   13 type  1   force =     0.00005954   -0.00000535    9.15922503
     atom   14 type  1   force =     0.00010362   -0.00001587    3.03630230
     atom   15 type  1   force =     0.00005481   -0.00000538   -3.03611028
     atom   16 type  1   force =     0.00010482   -0.00001293   -9.15905464
     The core correction contribution to forces
     atom    1 type  1   force =     0.00000000    0.00000000    0.00000000
     atom    2 type  1   force =     0.00000000    0.00000000    0.00000000
     atom    3 type  1   force =     0.00000000    0.00000000    0.00000000
     atom    4 type  1   force =     0.00000000    0.00000000    0.00000000
     atom    5 type  1   force =     0.00000000    0.00000000    0.00000000
     atom    6 type  1   force =     0.00000000    0.00000000    0.00000000
     atom    7 type  1   force =     0.00000000    0.00000000    0.00000000
     atom    8 type  1   force =     0.00000000    0.00000000    0.00000000
     atom    9 type  1   force =     0.00000000    0.00000000    0.00000000
     atom   10 type  1   force =     0.00000000    0.00000000    0.00000000
     atom   11 type  1   force =     0.00000000    0.00000000    0.00000000
     atom   12 type  1   force =     0.00000000    0.00000000    0.00000000
     atom   13 type  1   force =     0.00000000    0.00000000    0.00000000
     atom   14 type  1   force =     0.00000000    0.00000000    0.00000000
     atom   15 type  1   force =     0.00000000    0.00000000    0.00000000
     atom   16 type  1   force =     0.00000000    0.00000000    0.00000000
     The Hubbard contrib.    to forces
     atom    1 type  1   force =     0.00000000    0.00000000    0.00000000
     atom    2 type  1   force =     0.00000000    0.00000000    0.00000000
     atom    3 type  1   force =     0.00000000    0.00000000    0.00000000
     atom    4 type  1   force =     0.00000000    0.00000000    0.00000000
     atom    5 type  1   force =     0.00000000    0.00000000    0.00000000
     atom    6 type  1   force =     0.00000000    0.00000000    0.00000000
     atom    7 type  1   force =     0.00000000    0.00000000    0.00000000
     atom    8 type  1   force =     0.00000000    0.00000000    0.00000000
     atom    9 type  1   force =     0.00000000    0.00000000    0.00000000
     atom   10 type  1   force =     0.00000000    0.00000000    0.00000000
     atom   11 type  1   force =     0.00000000    0.00000000    0.00000000
     atom   12 type  1   force =     0.00000000    0.00000000    0.00000000
     atom   13 type  1   force =     0.00000000    0.00000000    0.00000000
     atom   14 type  1   force =     0.00000000    0.00000000    0.00000000
     atom   15 type  1   force =     0.00000000    0.00000000    0.00000000
     atom   16 type  1   force =     0.00000000    0.00000000    0.00000000
     The SCF correction term to forces
     atom    1 type  1   force =    -0.00000003    0.00000000    0.00000181
     atom    2 type  1   force =    -0.00000000   -0.00000000   -0.00000099
     atom    3 type  1   force =    -0.00000001    0.00000000    0.00000128
     atom    4 type  1   force =     0.00000000    0.00000000   -0.00000183
     atom    5 type  1   force =     0.00000001   -0.00000005    0.00000183
     atom    6 type  1   force =     0.00000000   -0.00000000   -0.00000096
     atom    7 type  1   force =    -0.00000001   -0.00000001    0.00000127
     atom    8 type  1   force =     0.00000000   -0.00000000   -0.00000181
     atom    9 type  1   force =    -0.00000001    0.00000005    0.00000183
     atom   10 type  1   force =    -0.00000000    0.00000000   -0.00000093
     atom   11 type  1   force =     0.00000001    0.00000001    0.00000127
     atom   12 type  1   force =     0.00000000    0.00000000   -0.00000182
     atom   13 type  1   force =     0.00000003   -0.00000000    0.00000181
     atom   14 type  1   force =     0.00000000   -0.00000000   -0.00000099
     atom   15 type  1   force =     0.00000001   -0.00000000    0.00000128
     atom   16 type  1   force =     0.00000000    0.00000000   -0.00000180

     Total force =     0.001263     Total SCF correction =     0.000006
     Energy error            =      7.4E-06 Ry
     Gradient error          =      3.9E-04 Ry/Bohr

     bfgs converged in  14 scf cycles and  13 bfgs steps
     (criteria: energy <  1.0E-05 Ry, force <  3.9E-04 Ry/Bohr)

     End of BFGS Geometry Optimization

     Final energy             =    -240.6155602772 Ry

     File ./Li/Lithium.bfgs deleted, as requested
Begin final coordinates

ATOMIC_POSITIONS (angstrom)
Li               0.9916120786        1.4024040798       20.0105008239
Li               1.9832882700        2.8047934300       22.3385951949
Li               0.9916604097        1.4023668072       24.7913432419
Li               1.9832882800        2.8047934500       27.1193319972
Li               0.0000278296        4.2072080092       20.0106520614
Li               0.9916443500        5.6095863900       22.3386956368
Li              -0.0000151437        4.2071644705       24.7913953018
Li               0.9916443300        5.6095863500       27.1194367373
Li               3.9665487904        1.4023784608       20.0106521214
Li               4.9582206700        2.8047934200       22.3386651426
Li               3.9665917537        1.4024219695       24.7913953218
Li               4.9582206800        2.8047934400       27.1194480889
Li               2.9749645414        4.2071823902       20.0105007939
Li               3.9665767500        5.6095863800       22.3385933903
Li               2.9749162003        4.2072196328       24.7913432119
Li               3.9665767300        5.6095863300       27.1193949908
End final coordinates

     Writing all to output data dir ./Li/Lithium.save/ :
     XML data file

     General routines

     Parallel routines

     PAW routines

     Environ routines

   This run was terminated on:  23:47: 0   4Jan2025

   JOB DONE.