     Program PWSCF v.7.4 starts on 27Dec2024 at 19:57:31

     Reading input from espresso.pwi
Warning: card &CELL ignored
Warning: card    PRESS_CONV_THR   = 0.1 ignored
Warning: card    CELL_DOFREE      = 'ALL' ignored
Warning: card / ignored
Warning: card &FCP ignored
Warning: card / ignored
Warning: card &RISM ignored
Warning: card / ignored

     Current dimensions of program PWSCF are:
     Max number of different atomic species (ntypx) = 10
     Max number of k-points (npk) =  40000
     Max angular momentum in pseudopotentials (lmaxx) =  4

     IMPORTANT: XC functional enforced from input :
     Exchange-correlation= PBE
                           (   1   4   3   4   0   0   0)
     Any further DFT definition will be discarded
     Please, verify this is what you really want

     Reading input from environ.in:
     * using ionic solvent mode
     * setting boundary derivatives method to SSCS default
     * setting electrolyte-boundary derivatives method to SSCS default

Environ Warning (1001): card EOF ignored

     Found identity + (  0.5000 -0.0000 -0.0000) symmetry
     This is a supercell, fractional translations are disabled

     R & G space division:  proc/nbgrp/npool/nimage =     192
     Subspace diagonalization in iterative solution of the eigenvalue problem:
     a serial algorithm will be used

     Using Slab Decomposition

     bravais-lattice index     =           12
     lattice parameter (alat)  =      18.3607  a.u.
     unit-cell volume          =   26895.2607 (a.u.)^3
     number of atoms/cell      =           44
     number of atomic types    =            1
     number of electrons       =       132.00
     number of Kohn-Sham states=           99
     kinetic-energy cutoff     =      80.0000  Ry
     charge density cutoff     =     800.0000  Ry
     scf convergence threshold =      1.0E-14
     mixing beta               =       0.2000
     number of iterations used =            8  local-TF  mixing
     Exchange-correlation= PBE
                           (   1   4   3   4   0   0   0)

                                  Environ Setup Summary

          O. Andreussi, I. Dabo and N. Marzari, J. Chem. Phys. 136, 064102 (2012)
          F. Nattino, M. Truscott, N. Marzari, and O. Andreussi, J. Chem. Phys. 150, 041722 (2019)

     in publications or presentations arising from this work.

     Parameters

     compensation onset threshold      =               0.1000E+00
     static permittivity               =                    89.90
     surface tension in input (dyn/cm) =                    37.30
     surface tension in internal units =               0.4792E-04

     Solvent Boundary

     solvent mode                      =                    ionic
     derivatives method                =                   lowmem
     electrolyte derivatives method    =                   lowmem
     numerical core for derivatives    =                      fft
     switching function adopted        =                     SCCS
     density limit for vacuum region   =               0.5000E-02
     density limit for bulk solvent    =               0.1000E-03
     soft-sphere radius mode           =                    bondi
     soft-sphere softness              =                     0.50
     alpha                             =                     1.32

     Electrostatic Setup

     electrostatic problem to solve    =                    modpb
     numerical solver adopted          =                   newton
     type of auxiliary density adopted =                     none
     numerical core for poisson        =                      fft
     adopting a nested solver scheme
     inner solver                      =                       cg
     inner core                        =                      fft
     type of pbc corrections           =                parabolic
     numerical core for corrections    =                      1da

     celldm(1)=  18.360747  celldm(2)=   0.866025  celldm(3)=   5.240449
     celldm(4)=  -0.288675  celldm(5)=   0.000000  celldm(6)=   0.000000

     crystal axes: (cart. coord. in units of alat)
               a(1) = (   1.000000   0.000000   0.000000 )
               a(2) = (  -0.250000   0.829156   0.000000 )
               a(3) = (   0.000000   0.000000   5.240449 )

     reciprocal axes: (cart. coord. in units 2 pi/alat)
               b(1) = (  1.000000  0.301511  0.000000 )
               b(2) = (  0.000000  1.206046  0.000000 )
               b(3) = (  0.000000  0.000000  0.190823 )

     PseudoPot. # 1 for Li read from file:
     /home/ba3g18/Repos/Pseudopotentials/pslibrary.1.0.0/pbe/PSEUDOPOTENTIALS/Li.pbe-sl-kjpaw_psl.1.0.0.UPF
     MD5 check sum: 3f4d2cafebb47c6c3aa8ed472e6f074d
     Pseudo is Projector augmented-wave, Zval =  3.0
     Generated using 'atomic' code by A. Dal Corso  v.7.4
     Shape of augmentation charge: PSQ
     Using radial grid of 1017 points,  4 beta functions with:
                l(1) =   0
                l(2) =   0
                l(3) =   1
                l(4) =   1
     Q(r) pseudized with 0 coefficients

     atomic species   valence    mass     pseudopotential
     Li                3.00     6.94000     Li( 1.00)

     No symmetry found

                                    s                        frac. trans.

      isym =  1     identity

 cryst.   s( 1) = (     1          0          0      )
                  (     0          1          0      )
                  (     0          0          1      )

 cart.    s( 1) = (  1.0000000  0.0000000  0.0000000 )
                  (  0.0000000  1.0000000  0.0000000 )
                  (  0.0000000  0.0000000  1.0000000 )

     point group C_1 (1)
     there are  1 classes
     the character table:

       E
A      1.00

     the symmetry operations in each class and the name of the first element:

     E        1
          identity

   Cartesian axes

     site n.     atom                  positions (alat units)
         1        Li     tau(   1) = (  -0.2502907   0.7797849   2.0584415  )
         2        Li     tau(   2) = (   0.2503197   0.2502198   3.1391333  )
         3        Li     tau(   3) = (   0.0003271   0.4531689   3.0217344  )
         4        Li     tau(   4) = (   0.2502170   0.6750897   2.9037234  )
         5        Li     tau(   5) = (   0.2501499   0.0794339   2.8066152  )
         6        Li     tau(   6) = (   0.0000807   0.3011623   2.7050011  )
         7        Li     tau(   7) = (   0.2499698   0.5247653   2.5991032  )
         8        Li     tau(   8) = (  -0.0000805   0.7526285   2.4880610  )
         9        Li     tau(   9) = (  -0.0002182   0.1526530   2.3702056  )
        10        Li     tau(  10) = (   0.2497156   0.3867139   2.2656761  )
        11        Li     tau(  11) = (  -0.0003366   0.5936068   2.1729130  )
        12        Li     tau(  12) = (   0.0002844   0.1409322   2.9747741  )
        13        Li     tau(  13) = (   0.2502184   0.3749923   2.8702446  )
        14        Li     tau(  14) = (   0.0000804   0.6041702   2.7523907  )
        15        Li     tau(  15) = (   0.2500303   0.8320363   2.6413459  )
        16        Li     tau(  16) = (   0.2499195   0.2264824   2.5354491  )
        17        Li     tau(  17) = (  -0.0001499   0.4482100   2.4338345  )
        18        Li     tau(  18) = (   0.2497827   0.6817133   2.3367260  )
        19        Li     tau(  19) = (   0.2496730   0.0744752   2.2187170  )
        20        Li     tau(  20) = (  -0.0003199   0.2774254   2.1013171  )
        21        Li     tau(  21) = (   0.2502906   0.5770159   3.1820072  )
        22        Li     tau(  22) = (   0.0003366   0.7631943   3.0675381  )
        23        Li     tau(  23) = (   0.2497093   0.7797848   2.0584414  )
        24        Li     tau(  24) = (   0.7503198   0.2502198   3.1391333  )
        25        Li     tau(  25) = (   0.5003271   0.4531689   3.0217346  )
        26        Li     tau(  26) = (   0.7502171   0.6750896   2.9037233  )
        27        Li     tau(  27) = (   0.7501499   0.0794339   2.8066152  )
        28        Li     tau(  28) = (   0.5000808   0.3011622   2.7050009  )
        29        Li     tau(  29) = (   0.7499697   0.5247652   2.5991033  )
        30        Li     tau(  30) = (   0.4999194   0.7526284   2.4880610  )
        31        Li     tau(  31) = (   0.4997817   0.1526530   2.3702055  )
        32        Li     tau(  32) = (   0.7497155   0.3867139   2.2656761  )
        33        Li     tau(  33) = (   0.4996634   0.5936069   2.1729130  )
        34        Li     tau(  34) = (   0.5002844   0.1409323   2.9747742  )
        35        Li     tau(  35) = (   0.7502183   0.3749923   2.8702446  )
        36        Li     tau(  36) = (   0.5000804   0.6041702   2.7523908  )
        37        Li     tau(  37) = (   0.7500303   0.8320364   2.6413459  )
        38        Li     tau(  38) = (   0.7499196   0.2264824   2.5354491  )
        39        Li     tau(  39) = (   0.4998501   0.4482100   2.4338346  )
        40        Li     tau(  40) = (   0.7497828   0.6817134   2.3367259  )
        41        Li     tau(  41) = (   0.7496729   0.0744752   2.2187170  )
        42        Li     tau(  42) = (   0.4996802   0.2774254   2.1013170  )
        43        Li     tau(  43) = (   0.7502907   0.5770159   3.1820071  )
        44        Li     tau(  44) = (   0.5003366   0.7631943   3.0675380  )

   Crystallographic axes

     site n.     atom                  positions (cryst. coord.)
         1        Li     tau(   1) = ( -0.0151766  0.9404562  0.3927987  )
         2        Li     tau(   2) = (  0.3257639  0.3017765  0.5990199  )
         3        Li     tau(   3) = (  0.1369627  0.5465424  0.5766175  )
         4        Li     tau(   4) = (  0.4537642  0.8141890  0.5540982  )
         5        Li     tau(   5) = (  0.2741002  0.0958009  0.5355677  )
         6        Li     tau(   6) = (  0.0908846  0.3632154  0.5161774  )
         7        Li     tau(   7) = (  0.4081925  0.6328909  0.4959696  )
         8        Li     tau(   8) = (  0.2268455  0.9077043  0.4747801  )
         9        Li     tau(   9) = (  0.0458084  0.1841065  0.4522906  )
        10        Li     tau(  10) = (  0.3663142  0.4663946  0.4323439  )
        11        Li     tau(  11) = (  0.1786426  0.7159170  0.4146425  )
        12        Li     tau(  12) = (  0.0427770  0.1699706  0.5676564  )
        13        Li     tau(  13) = (  0.3632829  0.4522579  0.5477097  )
        14        Li     tau(  14) = (  0.1822446  0.7286569  0.5252204  )
        15        Li     tau(  15) = (  0.5008987  1.0034738  0.5040305  )
        16        Li     tau(  16) = (  0.3182065  0.2731482  0.4838229  )
        17        Li     tau(  17) = (  0.1349906  0.5405618  0.4644325  )
        18        Li     tau(  18) = (  0.4553271  0.8221774  0.4459019  )
        19        Li     tau(  19) = (  0.2721281  0.0898205  0.4233830  )
        20        Li     tau(  20) = (  0.0833270  0.3345877  0.4009804  )
        21        Li     tau(  21) = (  0.4242675  0.6959075  0.6072013  )
        22        Li     tau(  22) = (  0.2304484  0.9204471  0.5853579  )
        23        Li     tau(  23) = (  0.4848233  0.9404561  0.3927987  )
[...]
     atom    7 type  1   force =     0.00005380   -0.06069102   -0.52953861
     atom    8 type  1   force =    -0.00014233    0.00923481   -3.07768096
     atom    9 type  1   force =    -0.00003169    0.07790562   -5.77891890
     atom   10 type  1   force =     0.00019605    0.02269033   -8.46159063
     atom   11 type  1   force =     0.00043539   -0.18507485  -10.39144193
     atom   12 type  1   force =    -0.00019561   -0.02269860    8.46158659
     atom   13 type  1   force =     0.00003181   -0.07790398    5.77891189
     atom   14 type  1   force =     0.00014339   -0.00923127    3.07771787
     atom   15 type  1   force =    -0.00005522    0.06068812    0.52952089
     atom   16 type  1   force =     0.00005624    0.03249121   -1.98335776
     atom   17 type  1   force =    -0.00006695   -0.04261385   -4.37018968
     atom   18 type  1   force =     0.00001964   -0.10487621   -6.62310243
     atom   19 type  1   force =     0.00053950    0.12245370   -9.34901961
     atom   20 type  1   force =    -0.00003118    0.20996861  -11.55312787
     atom   21 type  1   force =     0.00029181    0.12283425   12.06386272
     atom   22 type  1   force =    -0.00043596    0.18507518   10.39145255
     atom   23 type  1   force =    -0.00029092   -0.12282945  -12.06387787
     atom   24 type  1   force =     0.00003171   -0.20997419   11.55312945
     atom   25 type  1   force =    -0.00054042   -0.12244428    9.34904393
     atom   26 type  1   force =    -0.00001908    0.10487155    6.62308162
     atom   27 type  1   force =     0.00006656    0.04261562    4.37018190
     atom   28 type  1   force =    -0.00005670   -0.03249136    1.98335576
     atom   29 type  1   force =     0.00005492   -0.06069057   -0.52953876
     atom   30 type  1   force =    -0.00014191    0.00923538   -3.07768121
     atom   31 type  1   force =    -0.00003135    0.07790553   -5.77891981
     atom   32 type  1   force =     0.00019590    0.02269016   -8.46158891
     atom   33 type  1   force =     0.00043501   -0.18507507  -10.39144142
     atom   34 type  1   force =    -0.00019594   -0.02269948    8.46158642
     atom   35 type  1   force =     0.00003225   -0.07790386    5.77891223
     atom   36 type  1   force =     0.00014284   -0.00923051    3.07771974
     atom   37 type  1   force =    -0.00005560    0.06068733    0.52952056
     atom   38 type  1   force =     0.00005574    0.03249089   -1.98335857
     atom   39 type  1   force =    -0.00006677   -0.04261382   -4.37018926
     atom   40 type  1   force =     0.00001894   -0.10487640   -6.62310225
     atom   41 type  1   force =     0.00053993    0.12245325   -9.34901880
     atom   42 type  1   force =    -0.00003136    0.20996910  -11.55312903
     atom   43 type  1   force =     0.00029154    0.12283417   12.06386203
     atom   44 type  1   force =    -0.00043611    0.18507466   10.39145125
     The local contribution  to forces
     atom    1 type  1   force =     0.00047698    0.12624710   12.17604496
     atom    2 type  1   force =    -0.00006754    0.21729440  -11.64421663
     atom    3 type  1   force =     0.00060122    0.12293893   -9.35484987
     atom    4 type  1   force =    -0.00004184   -0.10101112   -6.62266996
     atom    5 type  1   force =    -0.00017460   -0.04481042   -4.36826610
     atom    6 type  1   force =     0.00006990    0.03379222   -1.98028328
     atom    7 type  1   force =    -0.00006514    0.06399550    0.52777630
     atom    8 type  1   force =     0.00024591   -0.01014497    3.07517543
     atom    9 type  1   force =     0.00007784   -0.07872351    5.78153354
     atom   10 type  1   force =    -0.00009370   -0.01995968    8.45934021
     atom   11 type  1   force =    -0.00054399    0.18407723   10.43472849
     atom   12 type  1   force =     0.00009324    0.01996801   -8.45933288
     atom   13 type  1   force =    -0.00007798    0.07872205   -5.78152305
     atom   14 type  1   force =    -0.00024695    0.01014176   -3.07520996
     atom   15 type  1   force =     0.00006655   -0.06399248   -0.52775559
     atom   16 type  1   force =    -0.00006978   -0.03379326    1.98028565
     atom   17 type  1   force =     0.00017439    0.04480798    4.36827632
     atom   18 type  1   force =     0.00004044    0.10101537    6.62269197
     atom   19 type  1   force =    -0.00060012   -0.12294841    9.35483170
     atom   20 type  1   force =     0.00006743   -0.21728754   11.64421962
     atom   21 type  1   force =    -0.00047777   -0.12625357  -12.17602606
     atom   22 type  1   force =     0.00054460   -0.18407775  -10.43473730
     atom   23 type  1   force =     0.00047685    0.12624760   12.17604526
     atom   24 type  1   force =    -0.00006800    0.21729424  -11.64421724
     atom   25 type  1   force =     0.00060106    0.12293816   -9.35485291
     atom   26 type  1   force =    -0.00004103   -0.10101086   -6.62266788
     atom   27 type  1   force =    -0.00017401   -0.04480981   -4.36826535
     atom   28 type  1   force =     0.00007020    0.03379327   -1.98028065
     atom   29 type  1   force =    -0.00006628    0.06399505    0.52777648
     atom   30 type  1   force =     0.00024550   -0.01014555    3.07517570
     atom   31 type  1   force =     0.00007749   -0.07872340    5.78153446
     atom   32 type  1   force =    -0.00009352   -0.01995951    8.45933845
     atom   33 type  1   force =    -0.00054354    0.18407743   10.43472799
     atom   34 type  1   force =     0.00009358    0.01996890   -8.45933269
     atom   35 type  1   force =    -0.00007839    0.07872194   -5.78152338
     atom   36 type  1   force =    -0.00024642    0.01014099   -3.07521186
     atom   37 type  1   force =     0.00006695   -0.06399167   -0.52775525
     atom   38 type  1   force =    -0.00006931   -0.03379292    1.98028648
     atom   39 type  1   force =     0.00017421    0.04480798    4.36827591
     atom   40 type  1   force =     0.00004114    0.10101553    6.62269178
     atom   41 type  1   force =    -0.00060048   -0.12294793    9.35483087
     atom   42 type  1   force =     0.00006765   -0.21728806   11.64422084
     atom   43 type  1   force =    -0.00047751   -0.12625349  -12.17602532
     atom   44 type  1   force =     0.00054476   -0.18407720  -10.43473594
     The core correction contribution to forces
     atom    1 type  1   force =     0.00000000    0.00000000    0.00000000
     atom    2 type  1   force =     0.00000000    0.00000000    0.00000000
     atom    3 type  1   force =     0.00000000    0.00000000    0.00000000
     atom    4 type  1   force =     0.00000000    0.00000000    0.00000000
     atom    5 type  1   force =     0.00000000    0.00000000    0.00000000
     atom    6 type  1   force =     0.00000000    0.00000000    0.00000000
     atom    7 type  1   force =     0.00000000    0.00000000    0.00000000
     atom    8 type  1   force =     0.00000000    0.00000000    0.00000000
     atom    9 type  1   force =     0.00000000    0.00000000    0.00000000
     atom   10 type  1   force =     0.00000000    0.00000000    0.00000000
     atom   11 type  1   force =     0.00000000    0.00000000    0.00000000
     atom   12 type  1   force =     0.00000000    0.00000000    0.00000000
     atom   13 type  1   force =     0.00000000    0.00000000    0.00000000
     atom   14 type  1   force =     0.00000000    0.00000000    0.00000000
     atom   15 type  1   force =     0.00000000    0.00000000    0.00000000
     atom   16 type  1   force =     0.00000000    0.00000000    0.00000000
     atom   17 type  1   force =     0.00000000    0.00000000    0.00000000
     atom   18 type  1   force =     0.00000000    0.00000000    0.00000000
     atom   19 type  1   force =     0.00000000    0.00000000    0.00000000
     atom   20 type  1   force =     0.00000000    0.00000000    0.00000000
     atom   21 type  1   force =     0.00000000    0.00000000    0.00000000
     atom   22 type  1   force =     0.00000000    0.00000000    0.00000000
     atom   23 type  1   force =     0.00000000    0.00000000    0.00000000
     atom   24 type  1   force =     0.00000000    0.00000000    0.00000000
     atom   25 type  1   force =     0.00000000    0.00000000    0.00000000
     atom   26 type  1   force =     0.00000000    0.00000000    0.00000000
     atom   27 type  1   force =     0.00000000    0.00000000    0.00000000
     atom   28 type  1   force =     0.00000000    0.00000000    0.00000000
     atom   29 type  1   force =     0.00000000    0.00000000    0.00000000
     atom   30 type  1   force =     0.00000000    0.00000000    0.00000000
     atom   31 type  1   force =     0.00000000    0.00000000    0.00000000
     atom   32 type  1   force =     0.00000000    0.00000000    0.00000000
     atom   33 type  1   force =     0.00000000    0.00000000    0.00000000
     atom   34 type  1   force =     0.00000000    0.00000000    0.00000000
     atom   35 type  1   force =     0.00000000    0.00000000    0.00000000
     atom   36 type  1   force =     0.00000000    0.00000000    0.00000000
     atom   37 type  1   force =     0.00000000    0.00000000    0.00000000
     atom   38 type  1   force =     0.00000000    0.00000000    0.00000000
     atom   39 type  1   force =     0.00000000    0.00000000    0.00000000
     atom   40 type  1   force =     0.00000000    0.00000000    0.00000000
     atom   41 type  1   force =     0.00000000    0.00000000    0.00000000
     atom   42 type  1   force =     0.00000000    0.00000000    0.00000000
     atom   43 type  1   force =     0.00000000    0.00000000    0.00000000
     atom   44 type  1   force =     0.00000000    0.00000000    0.00000000
     The Hubbard contrib.    to forces
     atom    1 type  1   force =     0.00000000    0.00000000    0.00000000
     atom    2 type  1   force =     0.00000000    0.00000000    0.00000000
     atom    3 type  1   force =     0.00000000    0.00000000    0.00000000
     atom    4 type  1   force =     0.00000000    0.00000000    0.00000000
     atom    5 type  1   force =     0.00000000    0.00000000    0.00000000
     atom    6 type  1   force =     0.00000000    0.00000000    0.00000000
     atom    7 type  1   force =     0.00000000    0.00000000    0.00000000
     atom    8 type  1   force =     0.00000000    0.00000000    0.00000000
     atom    9 type  1   force =     0.00000000    0.00000000    0.00000000
     atom   10 type  1   force =     0.00000000    0.00000000    0.00000000
     atom   11 type  1   force =     0.00000000    0.00000000    0.00000000
     atom   12 type  1   force =     0.00000000    0.00000000    0.00000000
     atom   13 type  1   force =     0.00000000    0.00000000    0.00000000
     atom   14 type  1   force =     0.00000000    0.00000000    0.00000000
     atom   15 type  1   force =     0.00000000    0.00000000    0.00000000
     atom   16 type  1   force =     0.00000000    0.00000000    0.00000000
     atom   17 type  1   force =     0.00000000    0.00000000    0.00000000
     atom   18 type  1   force =     0.00000000    0.00000000    0.00000000
     atom   19 type  1   force =     0.00000000    0.00000000    0.00000000
     atom   20 type  1   force =     0.00000000    0.00000000    0.00000000
     atom   21 type  1   force =     0.00000000    0.00000000    0.00000000
     atom   22 type  1   force =     0.00000000    0.00000000    0.00000000
     atom   23 type  1   force =     0.00000000    0.00000000    0.00000000
     atom   24 type  1   force =     0.00000000    0.00000000    0.00000000
     atom   25 type  1   force =     0.00000000    0.00000000    0.00000000
     atom   26 type  1   force =     0.00000000    0.00000000    0.00000000
     atom   27 type  1   force =     0.00000000    0.00000000    0.00000000
     atom   28 type  1   force =     0.00000000    0.00000000    0.00000000
     atom   29 type  1   force =     0.00000000    0.00000000    0.00000000
     atom   30 type  1   force =     0.00000000    0.00000000    0.00000000
     atom   31 type  1   force =     0.00000000    0.00000000    0.00000000
     atom   32 type  1   force =     0.00000000    0.00000000    0.00000000
     atom   33 type  1   force =     0.00000000    0.00000000    0.00000000
     atom   34 type  1   force =     0.00000000    0.00000000    0.00000000
     atom   35 type  1   force =     0.00000000    0.00000000    0.00000000
     atom   36 type  1   force =     0.00000000    0.00000000    0.00000000
     atom   37 type  1   force =     0.00000000    0.00000000    0.00000000
     atom   38 type  1   force =     0.00000000    0.00000000    0.00000000
     atom   39 type  1   force =     0.00000000    0.00000000    0.00000000
     atom   40 type  1   force =     0.00000000    0.00000000    0.00000000
     atom   41 type  1   force =     0.00000000    0.00000000    0.00000000
     atom   42 type  1   force =     0.00000000    0.00000000    0.00000000
     atom   43 type  1   force =     0.00000000    0.00000000    0.00000000
     atom   44 type  1   force =     0.00000000    0.00000000    0.00000000
     The SCF correction term to forces
     atom    1 type  1   force =    -0.00000000    0.00000001    0.00000002
     atom    2 type  1   force =     0.00000000    0.00000000   -0.00000000
     atom    3 type  1   force =     0.00000001    0.00000000   -0.00000002
     atom    4 type  1   force =    -0.00000000   -0.00000000   -0.00000002
     atom    5 type  1   force =     0.00000000    0.00000001   -0.00000001
     atom    6 type  1   force =    -0.00000000   -0.00000000   -0.00000002
     atom    7 type  1   force =    -0.00000000    0.00000000   -0.00000000
     atom    8 type  1   force =    -0.00000000    0.00000001   -0.00000001
     atom    9 type  1   force =     0.00000000    0.00000001   -0.00000001
     atom   10 type  1   force =    -0.00000000   -0.00000001   -0.00000001
     atom   11 type  1   force =    -0.00000000    0.00000000   -0.00000000
     atom   12 type  1   force =     0.00000000    0.00000001    0.00000000
     atom   13 type  1   force =     0.00000000   -0.00000001   -0.00000002
     atom   14 type  1   force =     0.00000000   -0.00000000   -0.00000001
     atom   15 type  1   force =    -0.00000001    0.00000001    0.00000000
     atom   16 type  1   force =     0.00000000    0.00000000    0.00000000
     atom   17 type  1   force =     0.00000000   -0.00000001    0.00000001
     atom   18 type  1   force =    -0.00000000    0.00000001    0.00000001
     atom   19 type  1   force =     0.00000000    0.00000001    0.00000001
     atom   20 type  1   force =     0.00000000   -0.00000000    0.00000001
     atom   21 type  1   force =     0.00000000   -0.00000000   -0.00000000
     atom   22 type  1   force =     0.00000000   -0.00000000   -0.00000000
     atom   23 type  1   force =     0.00000000    0.00000001    0.00000002
     atom   24 type  1   force =     0.00000000    0.00000000   -0.00000000
     atom   25 type  1   force =    -0.00000000    0.00000000   -0.00000002
     atom   26 type  1   force =     0.00000000    0.00000000   -0.00000001
     atom   27 type  1   force =    -0.00000000    0.00000001   -0.00000002
     atom   28 type  1   force =    -0.00000000   -0.00000000   -0.00000000
     atom   29 type  1   force =     0.00000000   -0.00000001   -0.00000000
     atom   30 type  1   force =     0.00000000    0.00000000   -0.00000001
     atom   31 type  1   force =    -0.00000000    0.00000001    0.00000000
     atom   32 type  1   force =     0.00000000   -0.00000000    0.00000000
     atom   33 type  1   force =     0.00000000    0.00000001   -0.00000001
     atom   34 type  1   force =    -0.00000000    0.00000001   -0.00000000
     atom   35 type  1   force =    -0.00000000   -0.00000001   -0.00000001
     atom   36 type  1   force =    -0.00000000   -0.00000000   -0.00000000
     atom   37 type  1   force =     0.00000000   -0.00000000   -0.00000001
     atom   38 type  1   force =     0.00000000   -0.00000001   -0.00000000
     atom   39 type  1   force =    -0.00000000   -0.00000001    0.00000001
     atom   40 type  1   force =     0.00000000    0.00000000   -0.00000000
     atom   41 type  1   force =    -0.00000000   -0.00000000    0.00000001
     atom   42 type  1   force =    -0.00000000   -0.00000001    0.00000001
     atom   43 type  1   force =     0.00000000   -0.00000000   -0.00000001
     atom   44 type  1   force =    -0.00000000   -0.00000000    0.00000000

     Total force =     0.000106     Total SCF correction =     0.000000
     Message from routine punch:
     Nothing written, as per user request (disk_io='none')

     General routines

     Parallel routines

     PAW routines

     Environ routines

   This run was terminated on:  21:18:42  27Dec2024

   JOB DONE.