     Program PWSCF v.7.4 starts on 12Jan2025 at  5:20: 5
        Git branch: develop
        Last git commit: e877ff360aceba4b8d76ffc2fb1c70545fc5dd57
        Last git commit date: Sat Jan 4 12:56:15 2025 +0000
        Last git commit subject: Merge branch 'orthoU' into 'develop'

     Reading input from espresso.pwi
Warning: card &CELL ignored
Warning: card    PRESS_CONV_THR   = 0.1 ignored
Warning: card    CELL_DOFREE      = 'ALL' ignored
Warning: card / ignored
Warning: card &FCP ignored
Warning: card / ignored
Warning: card &RISM ignored
Warning: card / ignored

     Current dimensions of program PWSCF are:
     Max number of different atomic species (ntypx) = 10
     Max number of k-points (npk) =  40000
     Max angular momentum in pseudopotentials (lmaxx) =  4

     IMPORTANT: XC functional enforced from input :
     Exchange-correlation= PBE
                           (   1   4   3   4   0   0   0)
     Any further DFT definition will be discarded
     Please, verify this is what you really want

     Reading input from environ.in:
     * using ionic solvent mode
     * setting boundary derivatives method to SSCS default
     * setting electrolyte-boundary derivatives method to SSCS default

Environ Warning (1001): card EOF ignored

     K-points division:     npool     =       2
     R & G space division:  proc/nbgrp/npool/nimage =     220
     Subspace diagonalization in iterative solution of the eigenvalue problem:
     a serial algorithm will be used

     Using Slab Decomposition

     bravais-lattice index     =           12
     lattice parameter (alat)  =      11.2436  a.u.
     unit-cell volume          =   15431.5264 (a.u.)^3
     number of atoms/cell      =           28
     number of atomic types    =            1
     number of electrons       =        84.00
     number of Kohn-Sham states=           63
     kinetic-energy cutoff     =      80.0000  Ry
     charge density cutoff     =     800.0000  Ry
     scf convergence threshold =      1.0E-14
     mixing beta               =       0.2000
     number of iterations used =            8  local-TF  mixing
     Exchange-correlation= PBE
                           (   1   4   3   4   0   0   0)

                                  Environ Setup Summary

          O. Andreussi, I. Dabo and N. Marzari, J. Chem. Phys. 136, 064102 (2012)
          F. Nattino, M. Truscott, N. Marzari, and O. Andreussi, J. Chem. Phys. 150, 041722 (2019)

     in publications or presentations arising from this work.

     Parameters

     compensation onset threshold      =               0.1000E+00
     static permittivity               =                    89.90
     surface tension in input (dyn/cm) =                    37.30
     surface tension in internal units =               0.4792E-04

     Solvent Boundary

     solvent mode                      =                    ionic
     derivatives method                =                   lowmem
     electrolyte derivatives method    =                   lowmem
     numerical core for derivatives    =                      fft
     switching function adopted        =                     SCCS
     density limit for vacuum region   =               0.5000E-02
     density limit for bulk solvent    =               0.1000E-03
     soft-sphere radius mode           =                    bondi
     soft-sphere softness              =                     0.50
     alpha                             =                     1.32

     Electrostatic Setup

     electrostatic problem to solve    =                    modpb
     numerical solver adopted          =                   newton
     type of auxiliary density adopted =                     none
     numerical core for poisson        =                      fft
     adopting a nested solver scheme
     inner solver                      =                       cg
     inner core                        =                      fft
     type of pbc corrections           =                parabolic
     numerical core for corrections    =                      1da

     >>>>> Grand-Canonical SCF is activated <<<<<
     Initial Total Charge  =     0.000000 e
     Target Fermi Energy   =    -4.404000 eV
     Thr. of Fermi Energy  =     0.001000 eV
     Wave-shift of Kerker  =     0.400000 bohr^-1
     Wave-shift of Hartree =     1.500000 bohr^-1
     Mixing Rate of Fermi  =     0.050000

     celldm(1)=  11.243615  celldm(2)=   1.258306  celldm(3)=   8.704589
     celldm(4)=  -0.132454  celldm(5)=   0.000000  celldm(6)=   0.000000

     crystal axes: (cart. coord. in units of alat)
               a(1) = (   1.000000   0.000000   0.000000 )
               a(2) = (  -0.166667   1.247219   0.000000 )
               a(3) = (   0.000000   0.000000   8.704589 )

     reciprocal axes: (cart. coord. in units 2 pi/alat)
               b(1) = (  1.000000  0.133631  0.000000 )
               b(2) = (  0.000000  0.801784  0.000000 )
               b(3) = (  0.000000  0.000000  0.114882 )

     PseudoPot. # 1 for Li read from file:
     /home/mmm1182/Repos/Pseudopotentials/pslibrary/Li.pbe-sl-kjpaw_psl.1.0.0.UPF
     MD5 check sum: f40bb4162937df3f7c561f1969c76545
     Pseudo is Projector augmented-wave, Zval =  3.0
     Generated using 'atomic' code by A. Dal Corso  v.7.3.1
     Shape of augmentation charge: PSQ
     Using radial grid of 1017 points,  4 beta functions with:
                l(1) =   0
                l(2) =   0
                l(3) =   1
                l(4) =   1
     Q(r) pseudized with 0 coefficients

     atomic species   valence    mass     pseudopotential
     Li                3.00     6.94000     Li( 1.00)

     No symmetry found

                                    s                        frac. trans.

      isym =  1     identity

 cryst.   s( 1) = (     1          0          0      )
                  (     0          1          0      )
                  (     0          0          1      )

 cart.    s( 1) = (  1.0000000  0.0000000  0.0000000 )
                  (  0.0000000  1.0000000  0.0000000 )
                  (  0.0000000  0.0000000  1.0000000 )

     point group C_1 (1)
     there are  1 classes
     the character table:

       E
A      1.00

     the symmetry operations in each class and the name of the first element:

     E        1
          identity

   Cartesian axes

     site n.     atom                  positions (alat units)
         1        Li     tau(   1) = (   0.0554293  -0.0442395   5.3989589  )
         2        Li     tau(   2) = (  -0.0554348   0.8460242   3.3056301  )
         3        Li     tau(   3) = (   0.1247211   0.3611380   3.4813432  )
         4        Li     tau(   4) = (   0.1591989   1.1550410   3.6793261  )
         5        Li     tau(   5) = (   0.3297359   0.7081753   3.7717539  )
         6        Li     tau(   6) = (   0.0018368   0.2741874   3.9632014  )
         7        Li     tau(   7) = (  -0.0288702   1.0604121   4.1176799  )
         8        Li     tau(   8) = (   0.1834750   0.6311817   4.2686222  )
         9        Li     tau(   9) = (   0.3165259   0.1706008   4.4359677  )
        10        Li     tau(  10) = (   0.3622030   0.9885896   4.5869102  )
        11        Li     tau(  11) = (  -0.0018395   0.5275961   4.7413878  )
        12        Li     tau(  12) = (   0.1702624   0.0936090   4.9328349  )
        13        Li     tau(  13) = (   0.1741347   0.8939615   5.0252634  )
        14        Li     tau(  14) = (   0.3752841   0.4406476   5.2232469  )
        15        Li     tau(  15) = (   0.5554284  -0.0442397   5.3989593  )
        16        Li     tau(  16) = (   0.4445764   0.8460240   3.3056305  )
        17        Li     tau(  17) = (   0.6247159   0.3611376   3.4813423  )
        18        Li     tau(  18) = (   0.6591971   1.1550413   3.6793256  )
        19        Li     tau(  19) = (   0.8297401   0.7081748   3.7717553  )
        20        Li     tau(  20) = (   0.5018377   0.2741868   3.9632019  )
        21        Li     tau(  21) = (   0.4711307   1.0604125   4.1176797  )
        22        Li     tau(  22) = (   0.6834747   0.6311819   4.2686217  )
        23        Li     tau(  23) = (   0.8165259   0.1706007   4.4359679  )
        24        Li     tau(  24) = (   0.8622032   0.9885896   4.5869097  )
        25        Li     tau(  25) = (   0.4981601   0.5275963   4.7413877  )
        26        Li     tau(  26) = (   0.6702632   0.0936088   4.9328354  )
        27        Li     tau(  27) = (   0.6741343   0.8939617   5.0252633  )
        28        Li     tau(  28) = (   0.8752835   0.4406476   5.2232470  )

   Crystallographic axes

     site n.     atom                  positions (cryst. coord.)
         1        Li     tau(   1) = (  0.0495175 -0.0354705  0.6202428  )
         2        Li     tau(   2) = (  0.0576202  0.6783285  0.3797572  )
         3        Li     tau(   3) = (  0.1729803  0.2895546  0.3999434  )
         4        Li     tau(   4) = (  0.3135481  0.9260931  0.4226881  )
         5        Li     tau(   5) = (  0.4243700  0.5678035  0.4333064  )
         6        Li     tau(   6) = (  0.0384767  0.2198390  0.4553002  )
         7        Li     tau(   7) = (  0.1128337  0.8502213  0.4730470  )
         8        Li     tau(   8) = (  0.2678203  0.5060713  0.4903876  )
         9        Li     tau(   9) = (  0.3393234  0.1367850  0.5096125  )
        10        Li     tau(  10) = (  0.4943091  0.7926351  0.5269531  )
        11        Li     tau(  11) = (  0.0686636  0.4230180  0.5446998  )
        12        Li     tau(  12) = (  0.1827714  0.0750542  0.5666936  )
        13        Li     tau(  13) = (  0.2935956  0.7167639  0.5773120  )
        14        Li     tau(  14) = (  0.4341682  0.3533041  0.6000567  )
        15        Li     tau(  15) = (  0.5495166 -0.0354707  0.6202429  )
        16        Li     tau(  16) = (  0.5576314  0.6783284  0.3797572  )
        17        Li     tau(  17) = (  0.6729751  0.2895543  0.3999433  )
        18        Li     tau(  18) = (  0.8135463  0.9260934  0.4226880  )
        19        Li     tau(  19) = (  0.9243741  0.5678031  0.4333065  )
        20        Li     tau(  20) = (  0.5384775  0.2198385  0.4553003  )
        21        Li     tau(  21) = (  0.6128346  0.8502216  0.4730470  )
        22        Li     tau(  22) = (  0.7678201  0.5060714  0.4903875  )
        23        Li     tau(  23) = (  0.8393234  0.1367849  0.5096126  )
        24        Li     tau(  24) = (  0.9943093  0.7926352  0.5269531  )
        25        Li     tau(  25) = (  0.5686632  0.4230181  0.5446998  )
        26        Li     tau(  26) = (  0.6827722  0.0750540  0.5666937  )
        27        Li     tau(  27) = (  0.7935952  0.7167640  0.5773120  )
        28        Li     tau(  28) = (  0.9341676  0.3533041  0.6000567  )

     number of k points=    50  Marzari-Vanderbilt smearing, width (Ry)=  0.0100
                       cart. coord. in units 2pi/alat
        k(    1) = (   0.0000000   0.0000000   0.0000000), wk =   0.0202020
        k(    2) = (   0.0000000   0.0890871   0.0000000), wk =   0.0404040
        k(    3) = (   0.0000000   0.1781742   0.0000000), wk =   0.0404040
[...]
     atom   12 type  1   force =     0.00003115   -0.00055223    0.05846267
     atom   13 type  1   force =    -0.00015480   -0.01191400    0.08741290
     atom   14 type  1   force =    -0.00008208    0.02521491    0.07578592
     atom   15 type  1   force =     0.00011930   -0.01722810    0.01589550
     atom   16 type  1   force =    -0.00012006    0.01722822   -0.01589548
     atom   17 type  1   force =     0.00008225   -0.02521515   -0.07578554
     atom   18 type  1   force =     0.00015484    0.01191426   -0.08741268
     atom   19 type  1   force =    -0.00003108    0.00055217   -0.05846239
     atom   20 type  1   force =    -0.00002097   -0.00312997   -0.04692116
     atom   21 type  1   force =     0.00002805    0.00144372   -0.02786098
     atom   22 type  1   force =    -0.00002480   -0.00022189   -0.00874934
     atom   23 type  1   force =     0.00002479    0.00022189    0.00874946
     atom   24 type  1   force =    -0.00002806   -0.00144372    0.02786110
     atom   25 type  1   force =     0.00002098    0.00312996    0.04692127
     atom   26 type  1   force =     0.00003115   -0.00055224    0.05846270
     atom   27 type  1   force =    -0.00015476   -0.01191399    0.08741290
     atom   28 type  1   force =    -0.00008202    0.02521490    0.07578594

     Forces acting on atoms (cartesian axes, Ry/au):

     atom    1 type  1   force =     0.00021076    0.00016185   -0.00007494
     atom    2 type  1   force =    -0.00020759   -0.00016206    0.00007499
     atom    3 type  1   force =     0.00008357    0.00006498    0.00002349
     atom    4 type  1   force =    -0.00001844   -0.00015172    0.00000300
     atom    5 type  1   force =     0.00016270    0.00005825    0.00001055
     atom    6 type  1   force =    -0.00012726   -0.00003107    0.00000955
     atom    7 type  1   force =     0.00008851    0.00009029   -0.00020745
     atom    8 type  1   force =     0.00002145   -0.00016077   -0.00002660
     atom    9 type  1   force =    -0.00002155    0.00016083    0.00002648
     atom   10 type  1   force =    -0.00008818   -0.00009008    0.00020719
     atom   11 type  1   force =     0.00012750    0.00003101   -0.00000936
     atom   12 type  1   force =    -0.00016093   -0.00005843   -0.00001002
     atom   13 type  1   force =     0.00001773    0.00015185   -0.00000313
     atom   14 type  1   force =    -0.00008544   -0.00006514   -0.00002379
     atom   15 type  1   force =     0.00021136    0.00016184   -0.00007492
     atom   16 type  1   force =    -0.00021487   -0.00016195    0.00007483
     atom   17 type  1   force =     0.00008687    0.00006525    0.00002404
     atom   18 type  1   force =    -0.00001722   -0.00015200    0.00000331
     atom   19 type  1   force =     0.00015997    0.00005862    0.00000960
     atom   20 type  1   force =    -0.00012789   -0.00003068    0.00000923
     atom   21 type  1   force =     0.00008793    0.00009007   -0.00020724
     atom   22 type  1   force =     0.00002163   -0.00016090   -0.00002631
     atom   23 type  1   force =    -0.00002157    0.00016092    0.00002643
     atom   24 type  1   force =    -0.00008833   -0.00009018    0.00020743
     atom   25 type  1   force =     0.00012776    0.00003091   -0.00000935
     atom   26 type  1   force =    -0.00016144   -0.00005831   -0.00001012
     atom   27 type  1   force =     0.00001802    0.00015172   -0.00000314
     atom   28 type  1   force =    -0.00008504   -0.00006508   -0.00002373
     The non-local contrib.  to forces
     atom    1 type  1   force =     0.00030809   -0.02181149    0.09843665
     atom    2 type  1   force =    -0.00030645    0.02181139   -0.09843658
     atom    3 type  1   force =     0.00020699   -0.02830752   -0.07841008
     atom    4 type  1   force =     0.00092534    0.00842690   -0.02869069
     atom    5 type  1   force =    -0.00078436   -0.00199282    0.00618527
     atom    6 type  1   force =     0.00006878    0.00011159    0.00404462
     atom    7 type  1   force =    -0.00037132   -0.00054789    0.00051221
     atom    8 type  1   force =     0.00072090   -0.00071852   -0.00032498
     atom    9 type  1   force =    -0.00072056    0.00071853    0.00032484
     atom   10 type  1   force =     0.00037148    0.00054803   -0.00051224
     atom   11 type  1   force =    -0.00006905   -0.00011187   -0.00404458
     atom   12 type  1   force =     0.00078553    0.00199272   -0.00618492
     atom   13 type  1   force =    -0.00092605   -0.00842690    0.02869014
     atom   14 type  1   force =    -0.00020782    0.02830746    0.07840972
     atom   15 type  1   force =     0.00030841   -0.02181149    0.09843666
     atom   16 type  1   force =    -0.00031030    0.02181191   -0.09843690
     atom   17 type  1   force =     0.00020885   -0.02830754   -0.07840932
     atom   18 type  1   force =     0.00092640    0.00842754   -0.02868979
     atom   19 type  1   force =    -0.00078620   -0.00199302    0.00618481
     atom   20 type  1   force =     0.00006834    0.00011234    0.00404481
     atom   21 type  1   force =    -0.00037163   -0.00054835    0.00051224
     atom   22 type  1   force =     0.00072063   -0.00071857   -0.00032480
     atom   23 type  1   force =    -0.00072063    0.00071866    0.00032484
     atom   24 type  1   force =     0.00037149    0.00054784   -0.00051211
     atom   25 type  1   force =    -0.00006870   -0.00011206   -0.00404461
     atom   26 type  1   force =     0.00078524    0.00199279   -0.00618509
     atom   27 type  1   force =    -0.00092571   -0.00842693    0.02869009
     atom   28 type  1   force =    -0.00020763    0.02830755    0.07840985
     The ionic contribution  to forces
     atom    1 type  1   force =    -0.00060050   -0.19920238   13.11667679
     atom    2 type  1   force =     0.00064695    0.19920278  -13.11668002
     atom    3 type  1   force =     0.00173507   -0.36028020  -11.76659756
     atom    4 type  1   force =    -0.00360578    0.21318032   -9.38717307
     atom    5 type  1   force =     0.00023132   -0.05314673   -7.75340982
     atom    6 type  1   force =    -0.00122872    0.01197117   -5.27562830
     atom    7 type  1   force =     0.00457681    0.02190888   -3.17953722
     atom    8 type  1   force =    -0.00275318   -0.06969906   -1.12611070
     atom    9 type  1   force =     0.00275473    0.06969847    1.12611201
     atom   10 type  1   force =    -0.00457367   -0.02190166    3.17953951
     atom   11 type  1   force =     0.00123042   -0.01197707    5.27562154
     atom   12 type  1   force =    -0.00021396    0.05314915    7.75340462
     atom   13 type  1   force =     0.00359425   -0.21317937    9.38716831
     atom   14 type  1   force =    -0.00175951    0.36027383   11.76659944
     atom   15 type  1   force =    -0.00059333   -0.19920263   13.11667911
     atom   16 type  1   force =     0.00054673    0.19920524  -13.11667911
     atom   17 type  1   force =     0.00177720   -0.36028250  -11.76659619
     atom   18 type  1   force =    -0.00358785    0.21318801   -9.38716863
     atom   19 type  1   force =     0.00020375   -0.05315070   -7.75339473
     atom   20 type  1   force =    -0.00123416    0.01198146   -5.27561977
     atom   21 type  1   force =     0.00457150    0.02190125   -3.17953848
     atom   22 type  1   force =    -0.00275671   -0.06969985   -1.12611728
     atom   23 type  1   force =     0.00275336    0.06970069    1.12611599
     atom   24 type  1   force =    -0.00457453   -0.02190440    3.17953737
     atom   25 type  1   force =     0.00123579   -0.01197967    5.27561912
     atom   26 type  1   force =    -0.00022095    0.05315057    7.75340918
     atom   27 type  1   force =     0.00359970   -0.21318075    9.38716741
     atom   28 type  1   force =    -0.00175471    0.36027515   11.76660047
     The local contribution  to forces
     atom    1 type  1   force =     0.00038403    0.23840381  -13.23108411
     atom    2 type  1   force =    -0.00042970   -0.23840439   13.23108684
     atom    3 type  1   force =    -0.00194032    0.41386766   11.92081698
     atom    4 type  1   force =     0.00250727   -0.23367296    9.50327959
     atom    5 type  1   force =     0.00074696    0.05464554    7.80569767
     atom    6 type  1   force =     0.00105364   -0.00898385    5.31851446
     atom    7 type  1   force =    -0.00414504   -0.02271444    3.20667848
     atom    8 type  1   force =     0.00207852    0.07047869    1.13515834
     atom    9 type  1   force =    -0.00208050   -0.07047804   -1.13515980
     atom   10 type  1   force =     0.00414206    0.02270726   -3.20668121
     atom   11 type  1   force =    -0.00105484    0.00898998   -5.31850760
     atom   12 type  1   force =    -0.00076365   -0.05464808   -7.80569238
     atom   13 type  1   force =    -0.00249566    0.23367212   -9.50327446
     atom   14 type  1   force =     0.00196400   -0.41386134  -11.92081889
     atom   15 type  1   force =     0.00037700    0.23840406  -13.23108620
     atom   16 type  1   force =    -0.00033123   -0.23840733   13.23108634
     atom   17 type  1   force =    -0.00198144    0.41387043   11.92081512
     atom   18 type  1   force =     0.00248939   -0.23368181    9.50327441
     atom   19 type  1   force =     0.00077350    0.05465017    7.80568187
     atom   20 type  1   force =     0.00105891   -0.00899452    5.31850531
     atom   21 type  1   force =    -0.00413998   -0.02270654    3.20667995
     atom   22 type  1   force =     0.00208252    0.07047941    1.13516508
     atom   23 type  1   force =    -0.00207908   -0.07048031   -1.13516388
     atom   24 type  1   force =     0.00414277    0.02271010   -3.20667893
     atom   25 type  1   force =    -0.00106030    0.00899269   -5.31850511
     atom   26 type  1   force =    -0.00075687   -0.05464943   -7.80569689
     atom   27 type  1   force =    -0.00250121    0.23367339   -9.50327353
     atom   28 type  1   force =     0.00195934   -0.41386267  -11.92081999
     The core correction contribution to forces
     atom    1 type  1   force =     0.00000000    0.00000000    0.00000000
     atom    2 type  1   force =     0.00000000    0.00000000    0.00000000
     atom    3 type  1   force =     0.00000000    0.00000000    0.00000000
     atom    4 type  1   force =     0.00000000    0.00000000    0.00000000
     atom    5 type  1   force =     0.00000000    0.00000000    0.00000000
     atom    6 type  1   force =     0.00000000    0.00000000    0.00000000
     atom    7 type  1   force =     0.00000000    0.00000000    0.00000000
     atom    8 type  1   force =     0.00000000    0.00000000    0.00000000
     atom    9 type  1   force =     0.00000000    0.00000000    0.00000000
     atom   10 type  1   force =     0.00000000    0.00000000    0.00000000
     atom   11 type  1   force =     0.00000000    0.00000000    0.00000000
     atom   12 type  1   force =     0.00000000    0.00000000    0.00000000
     atom   13 type  1   force =     0.00000000    0.00000000    0.00000000
     atom   14 type  1   force =     0.00000000    0.00000000    0.00000000
     atom   15 type  1   force =     0.00000000    0.00000000    0.00000000
     atom   16 type  1   force =     0.00000000    0.00000000    0.00000000
     atom   17 type  1   force =     0.00000000    0.00000000    0.00000000
     atom   18 type  1   force =     0.00000000    0.00000000    0.00000000
     atom   19 type  1   force =     0.00000000    0.00000000    0.00000000
     atom   20 type  1   force =     0.00000000    0.00000000    0.00000000
     atom   21 type  1   force =     0.00000000    0.00000000    0.00000000
     atom   22 type  1   force =     0.00000000    0.00000000    0.00000000
     atom   23 type  1   force =     0.00000000    0.00000000    0.00000000
     atom   24 type  1   force =     0.00000000    0.00000000    0.00000000
     atom   25 type  1   force =     0.00000000    0.00000000    0.00000000
     atom   26 type  1   force =     0.00000000    0.00000000    0.00000000
     atom   27 type  1   force =     0.00000000    0.00000000    0.00000000
     atom   28 type  1   force =     0.00000000    0.00000000    0.00000000
     The Hubbard contrib.    to forces
     atom    1 type  1   force =     0.00000000    0.00000000    0.00000000
     atom    2 type  1   force =     0.00000000    0.00000000    0.00000000
     atom    3 type  1   force =     0.00000000    0.00000000    0.00000000
     atom    4 type  1   force =     0.00000000    0.00000000    0.00000000
     atom    5 type  1   force =     0.00000000    0.00000000    0.00000000
     atom    6 type  1   force =     0.00000000    0.00000000    0.00000000
     atom    7 type  1   force =     0.00000000    0.00000000    0.00000000
     atom    8 type  1   force =     0.00000000    0.00000000    0.00000000
     atom    9 type  1   force =     0.00000000    0.00000000    0.00000000
     atom   10 type  1   force =     0.00000000    0.00000000    0.00000000
     atom   11 type  1   force =     0.00000000    0.00000000    0.00000000
     atom   12 type  1   force =     0.00000000    0.00000000    0.00000000
     atom   13 type  1   force =     0.00000000    0.00000000    0.00000000
     atom   14 type  1   force =     0.00000000    0.00000000    0.00000000
     atom   15 type  1   force =     0.00000000    0.00000000    0.00000000
     atom   16 type  1   force =     0.00000000    0.00000000    0.00000000
     atom   17 type  1   force =     0.00000000    0.00000000    0.00000000
     atom   18 type  1   force =     0.00000000    0.00000000    0.00000000
     atom   19 type  1   force =     0.00000000    0.00000000    0.00000000
     atom   20 type  1   force =     0.00000000    0.00000000    0.00000000
     atom   21 type  1   force =     0.00000000    0.00000000    0.00000000
     atom   22 type  1   force =     0.00000000    0.00000000    0.00000000
     atom   23 type  1   force =     0.00000000    0.00000000    0.00000000
     atom   24 type  1   force =     0.00000000    0.00000000    0.00000000
     atom   25 type  1   force =     0.00000000    0.00000000    0.00000000
     atom   26 type  1   force =     0.00000000    0.00000000    0.00000000
     atom   27 type  1   force =     0.00000000    0.00000000    0.00000000
     atom   28 type  1   force =     0.00000000    0.00000000    0.00000000
     The SCF correction term to forces
     atom    1 type  1   force =    -0.00000001   -0.00000001    0.00000003
     atom    2 type  1   force =    -0.00000000    0.00000001   -0.00000002
     atom    3 type  1   force =    -0.00000000   -0.00000002   -0.00000000
     atom    4 type  1   force =     0.00000001   -0.00000001    0.00000005
     atom    5 type  1   force =     0.00000000   -0.00000000    0.00000002
     atom    6 type  1   force =     0.00000000    0.00000001    0.00000003
     atom    7 type  1   force =    -0.00000000   -0.00000000    0.00000004
     atom    8 type  1   force =    -0.00000000    0.00000001    0.00000002
     atom    9 type  1   force =     0.00000000   -0.00000001    0.00000000
     atom   10 type  1   force =     0.00000000    0.00000000   -0.00000001
     atom   11 type  1   force =     0.00000000   -0.00000000   -0.00000002
     atom   12 type  1   force =     0.00000000    0.00000001   -0.00000002
     atom   13 type  1   force =     0.00000000    0.00000000   -0.00000001
     atom   14 type  1   force =    -0.00000001   -0.00000000    0.00000001
     atom   15 type  1   force =    -0.00000002   -0.00000001    0.00000002
     atom   16 type  1   force =    -0.00000001    0.00000002   -0.00000002
     atom   17 type  1   force =    -0.00000000    0.00000000   -0.00000002
     atom   18 type  1   force =     0.00000000   -0.00000000    0.00000001
     atom   19 type  1   force =    -0.00000000   -0.00000000    0.00000003
     atom   20 type  1   force =     0.00000000    0.00000001    0.00000004
     atom   21 type  1   force =    -0.00000000   -0.00000000    0.00000004
     atom   22 type  1   force =    -0.00000000    0.00000000    0.00000002
     atom   23 type  1   force =     0.00000000   -0.00000001    0.00000001
     atom   24 type  1   force =     0.00000000    0.00000000   -0.00000001
     atom   25 type  1   force =     0.00000000   -0.00000001   -0.00000002
     atom   26 type  1   force =     0.00000000    0.00000000   -0.00000002
     atom   27 type  1   force =     0.00000000    0.00000000   -0.00000001
     atom   28 type  1   force =    -0.00000001   -0.00000001    0.00000001

     Total force =     0.000989     Total SCF correction =     0.000000

     Writing all to output data dir ./Li/Lithium.save/ :
     XML data file

     General routines

     Parallel routines

     PAW routines

     Environ routines

   This run was terminated on:   5:37:21  12Jan2025

   JOB DONE.