     Program PWSCF v.7.4 starts on  5Jan2025 at  4: 3:22
        Git branch: develop
        Last git commit: e877ff360aceba4b8d76ffc2fb1c70545fc5dd57
        Last git commit date: Sat Jan 4 12:56:15 2025 +0000
        Last git commit subject: Merge branch 'orthoU' into 'develop'

     Reading input from espresso.pwi
Warning: card &CELL ignored
Warning: card    PRESS_CONV_THR   = 0.1 ignored
Warning: card    CELL_DOFREE      = 'ALL' ignored
Warning: card / ignored
Warning: card &FCP ignored
Warning: card / ignored
Warning: card &RISM ignored
Warning: card / ignored

     Current dimensions of program PWSCF are:
     Max number of different atomic species (ntypx) = 10
     Max number of k-points (npk) =  40000
     Max angular momentum in pseudopotentials (lmaxx) =  4

     IMPORTANT: XC functional enforced from input :
     Exchange-correlation= PBE
                           (   1   4   3   4   0   0   0)
     Any further DFT definition will be discarded
     Please, verify this is what you really want

     Reading input from environ.in:
     * using ionic solvent mode
     * setting boundary derivatives method to SSCS default
     * setting electrolyte-boundary derivatives method to SSCS default

Environ Warning (1001): card EOF ignored

     Found identity + (  0.5000  0.0000  0.0000) symmetry
     This is a supercell, fractional translations are disabled

     K-points division:     npool     =       2
     R & G space division:  proc/nbgrp/npool/nimage =     220
     Subspace diagonalization in iterative solution of the eigenvalue problem:
     a serial algorithm will be used

     Using Slab Decomposition

     bravais-lattice index     =            8
     lattice parameter (alat)  =      12.9830  a.u.
     unit-cell volume          =   29886.2289 (a.u.)^3
     number of atoms/cell      =           52
     number of atomic types    =            1
     number of electrons       =       156.00
     number of Kohn-Sham states=          117
     kinetic-energy cutoff     =      80.0000  Ry
     charge density cutoff     =     800.0000  Ry
     scf convergence threshold =      1.0E-06
     mixing beta               =       0.2000
     number of iterations used =            8  local-TF  mixing
     energy convergence thresh.=      1.0E-05
     force convergence thresh. =      3.9E-04
     Exchange-correlation= PBE
                           (   1   4   3   4   0   0   0)
     nstep                     =          999

                                  Environ Setup Summary

          O. Andreussi, I. Dabo and N. Marzari, J. Chem. Phys. 136, 064102 (2012)
          F. Nattino, M. Truscott, N. Marzari, and O. Andreussi, J. Chem. Phys. 150, 041722 (2019)

     in publications or presentations arising from this work.

     Parameters

     compensation onset threshold      =               0.1000E+00
     static permittivity               =                    89.90
     surface tension in input (dyn/cm) =                    37.30
     surface tension in internal units =               0.4792E-04

     Solvent Boundary

     solvent mode                      =                    ionic
     derivatives method                =                   lowmem
     electrolyte derivatives method    =                   lowmem
     numerical core for derivatives    =                      fft
     switching function adopted        =                     SCCS
     density limit for vacuum region   =               0.5000E-02
     density limit for bulk solvent    =               0.1000E-03
     soft-sphere radius mode           =                    bondi
     soft-sphere softness              =                     0.50
     alpha                             =                     1.32

     Electrostatic Setup

     electrostatic problem to solve    =                    modpb
     numerical solver adopted          =                   newton
     type of auxiliary density adopted =                     none
     numerical core for poisson        =                      fft
     adopting a nested solver scheme
     inner solver                      =                       cg
     inner core                        =                      fft
     type of pbc corrections           =                parabolic
     numerical core for corrections    =                      1da

     >>>>> Grand-Canonical SCF is activated <<<<<
     Initial Total Charge  =     0.000000 e
     Target Fermi Energy   =    -3.904000 eV
     Thr. of Fermi Energy  =     0.001000 eV
     Wave-shift of Kerker  =     0.400000 bohr^-1
     Wave-shift of Hartree =     1.500000 bohr^-1
     Mixing Rate of Fermi  =     0.050000

     celldm(1)=  12.983009  celldm(2)=   1.802776  celldm(3)=   7.575360
     celldm(4)=   0.000000  celldm(5)=   0.000000  celldm(6)=   0.000000

     crystal axes: (cart. coord. in units of alat)
               a(1) = (   1.000000   0.000000   0.000000 )
               a(2) = (   0.000000   1.802776   0.000000 )
               a(3) = (   0.000000   0.000000   7.575360 )

     reciprocal axes: (cart. coord. in units 2 pi/alat)
               b(1) = (  1.000000  0.000000  0.000000 )
               b(2) = (  0.000000  0.554700  0.000000 )
               b(3) = (  0.000000  0.000000  0.132007 )

     PseudoPot. # 1 for Li read from file:
     /home/mmm1182/Repos/Pseudopotentials/pslibrary/Li.pbe-sl-kjpaw_psl.1.0.0.UPF
     MD5 check sum: f40bb4162937df3f7c561f1969c76545
     Pseudo is Projector augmented-wave, Zval =  3.0
     Generated using 'atomic' code by A. Dal Corso  v.7.3.1
     Shape of augmentation charge: PSQ
     Using radial grid of 1017 points,  4 beta functions with:
                l(1) =   0
                l(2) =   0
                l(3) =   1
                l(4) =   1
     Q(r) pseudized with 0 coefficients

     atomic species   valence    mass     pseudopotential
     Li                3.00     6.94000     Li( 1.00)

      2 Sym. Ops. (no inversion) found

                                    s                        frac. trans.

      isym =  1     identity

 cryst.   s( 1) = (     1          0          0      )
                  (     0          1          0      )
                  (     0          0          1      )

 cart.    s( 1) = (  1.0000000  0.0000000  0.0000000 )
                  (  0.0000000  1.0000000  0.0000000 )
                  (  0.0000000  0.0000000  1.0000000 )

      isym =  2     inv. 180 deg rotation - cart. axis [1,0,0]

 cryst.   s( 2) = (    -1          0          0      )
                  (     0          1          0      )
                  (     0          0          1      )

 cart.    s( 2) = ( -1.0000000  0.0000000  0.0000000 )
                  (  0.0000000  1.0000000  0.0000000 )
                  (  0.0000000  0.0000000  1.0000000 )

     point group C_s (m)
     there are  2 classes
     the character table:

       E     s
A'     1.00  1.00
A''    1.00 -1.00

     the symmetry operations in each class and the name of the first element:

     E        1
          identity
     s        2
          inv. 180 deg rotation - cart. axis [1,0,0]

   Cartesian axes

     site n.     atom                  positions (alat units)
         1        Li     tau(   1) = (   0.0000000   1.1408627   4.5290013  )
         2        Li     tau(   2) = (   0.0000000   1.5083429   4.2831397  )
         3        Li     tau(   3) = (   0.0000000   0.4033906   4.3119646  )
         4        Li     tau(   4) = (   0.0000000   0.8242923   4.1276752  )
         5        Li     tau(   5) = (   0.0000000   1.2464047   3.8146454  )
         6        Li     tau(   6) = (   0.0000000   1.6573967   3.5919490  )
         7        Li     tau(   7) = (   0.0000000   0.1273960   3.9643992  )
         8        Li     tau(   8) = (   0.0000000   0.5703469   3.6387473  )
         9        Li     tau(   9) = (   0.0000000   0.9790287   3.3980843  )
        10        Li     tau(  10) = (   0.0000000   1.4171604   3.0971784  )
        11        Li     tau(  11) = (   0.0000000   0.2936256   3.2481915  )
        12        Li     tau(  12) = (   0.0000000   0.5994817   2.9363953  )
        13        Li     tau(  13) = (   0.0000000   0.1753817   4.6790279  )
        14        Li     tau(  14) = (   0.2500000   1.1704332   4.1772763  )
        15        Li     tau(  15) = (   0.2500000   1.5791168   3.9366146  )
        16        Li     tau(  16) = (   0.2500000   0.4920655   3.9834128  )
        17        Li     tau(  17) = (   0.2500000   0.9030598   3.7607165  )
        18        Li     tau(  18) = (   0.2500000   1.3251712   3.4476865  )
        19        Li     tau(  19) = (   0.2500000   1.7460729   3.2633963  )
        20        Li     tau(  20) = (   0.2500000   0.2192919   3.6109622  )
        21        Li     tau(  21) = (   0.2500000   0.6411212   3.2922229  )
        22        Li     tau(  22) = (   0.2500000   1.0086003   3.0463611  )
        23        Li     tau(  23) = (   0.2500000   1.5499835   4.6389663  )
        24        Li     tau(  24) = (   0.2500000   0.1713057   2.8963340  )
        25        Li     tau(  25) = (   0.2500000   0.7323006   4.4781832  )
        26        Li     tau(  26) = (   0.2500000   0.0530606   4.3271700  )
        27        Li     tau(  27) = (   0.5000000   1.1408627   4.5290013  )
        28        Li     tau(  28) = (   0.5000000   1.5083430   4.2831397  )
        29        Li     tau(  29) = (   0.5000000   0.4033905   4.3119647  )
        30        Li     tau(  30) = (   0.5000000   0.8242923   4.1276752  )
        31        Li     tau(  31) = (   0.5000000   1.2464047   3.8146454  )
        32        Li     tau(  32) = (   0.5000000   1.6573967   3.5919490  )
        33        Li     tau(  33) = (   0.5000000   0.1273960   3.9643992  )
        34        Li     tau(  34) = (   0.5000000   0.5703469   3.6387474  )
        35        Li     tau(  35) = (   0.5000000   0.9790288   3.3980843  )
        36        Li     tau(  36) = (   0.5000000   1.4171604   3.0971785  )
        37        Li     tau(  37) = (   0.5000000   0.2936255   3.2481915  )
        38        Li     tau(  38) = (   0.5000000   0.5994817   2.9363952  )
        39        Li     tau(  39) = (   0.5000000   0.1753816   4.6790278  )
        40        Li     tau(  40) = (   0.7500000   1.1704332   4.1772763  )
        41        Li     tau(  41) = (   0.7500000   1.5791168   3.9366146  )
        42        Li     tau(  42) = (   0.7500000   0.4920655   3.9834128  )
        43        Li     tau(  43) = (   0.7500000   0.9030598   3.7607165  )
        44        Li     tau(  44) = (   0.7500000   1.3251712   3.4476865  )
        45        Li     tau(  45) = (   0.7500000   1.7460729   3.2633963  )
        46        Li     tau(  46) = (   0.7500000   0.2192919   3.6109622  )
        47        Li     tau(  47) = (   0.7500000   0.6411212   3.2922229  )
        48        Li     tau(  48) = (   0.7500000   1.0086003   3.0463611  )
        49        Li     tau(  49) = (   0.7500000   1.5499835   4.6389663  )
        50        Li     tau(  50) = (   0.7500000   0.1713057   2.8963340  )
        51        Li     tau(  51) = (   0.7500000   0.7323006   4.4781832  )
[...]
     atom   48 type  1   force =     0.00000321   -0.52656430   11.77063176
     atom   49 type  1   force =     0.00000225    0.33539926  -12.71655184
     atom   50 type  1   force =     0.00000195    0.61571769   12.91295518
     atom   51 type  1   force =    -0.00000014    0.00125821  -11.32480217
     atom   52 type  1   force =     0.00000014   -0.20336681   -8.42095664
     The core correction contribution to forces
     atom    1 type  1   force =     0.00000000    0.00000000    0.00000000
     atom    2 type  1   force =     0.00000000    0.00000000    0.00000000
     atom    3 type  1   force =     0.00000000    0.00000000    0.00000000
     atom    4 type  1   force =     0.00000000    0.00000000    0.00000000
     atom    5 type  1   force =     0.00000000    0.00000000    0.00000000
     atom    6 type  1   force =     0.00000000    0.00000000    0.00000000
     atom    7 type  1   force =     0.00000000    0.00000000    0.00000000
     atom    8 type  1   force =     0.00000000    0.00000000    0.00000000
     atom    9 type  1   force =     0.00000000    0.00000000    0.00000000
     atom   10 type  1   force =     0.00000000    0.00000000    0.00000000
     atom   11 type  1   force =     0.00000000    0.00000000    0.00000000
     atom   12 type  1   force =     0.00000000    0.00000000    0.00000000
     atom   13 type  1   force =     0.00000000    0.00000000    0.00000000
     atom   14 type  1   force =     0.00000000    0.00000000    0.00000000
     atom   15 type  1   force =     0.00000000    0.00000000    0.00000000
     atom   16 type  1   force =     0.00000000    0.00000000    0.00000000
     atom   17 type  1   force =     0.00000000    0.00000000    0.00000000
     atom   18 type  1   force =     0.00000000    0.00000000    0.00000000
     atom   19 type  1   force =     0.00000000    0.00000000    0.00000000
     atom   20 type  1   force =     0.00000000    0.00000000    0.00000000
     atom   21 type  1   force =     0.00000000    0.00000000    0.00000000
     atom   22 type  1   force =     0.00000000    0.00000000    0.00000000
     atom   23 type  1   force =     0.00000000    0.00000000    0.00000000
     atom   24 type  1   force =     0.00000000    0.00000000    0.00000000
     atom   25 type  1   force =     0.00000000    0.00000000    0.00000000
     atom   26 type  1   force =     0.00000000    0.00000000    0.00000000
     atom   27 type  1   force =     0.00000000    0.00000000    0.00000000
     atom   28 type  1   force =     0.00000000    0.00000000    0.00000000
     atom   29 type  1   force =     0.00000000    0.00000000    0.00000000
     atom   30 type  1   force =     0.00000000    0.00000000    0.00000000
     atom   31 type  1   force =     0.00000000    0.00000000    0.00000000
     atom   32 type  1   force =     0.00000000    0.00000000    0.00000000
     atom   33 type  1   force =     0.00000000    0.00000000    0.00000000
     atom   34 type  1   force =     0.00000000    0.00000000    0.00000000
     atom   35 type  1   force =     0.00000000    0.00000000    0.00000000
     atom   36 type  1   force =     0.00000000    0.00000000    0.00000000
     atom   37 type  1   force =     0.00000000    0.00000000    0.00000000
     atom   38 type  1   force =     0.00000000    0.00000000    0.00000000
     atom   39 type  1   force =     0.00000000    0.00000000    0.00000000
     atom   40 type  1   force =     0.00000000    0.00000000    0.00000000
     atom   41 type  1   force =     0.00000000    0.00000000    0.00000000
     atom   42 type  1   force =     0.00000000    0.00000000    0.00000000
     atom   43 type  1   force =     0.00000000    0.00000000    0.00000000
     atom   44 type  1   force =     0.00000000    0.00000000    0.00000000
     atom   45 type  1   force =     0.00000000    0.00000000    0.00000000
     atom   46 type  1   force =     0.00000000    0.00000000    0.00000000
     atom   47 type  1   force =     0.00000000    0.00000000    0.00000000
     atom   48 type  1   force =     0.00000000    0.00000000    0.00000000
     atom   49 type  1   force =     0.00000000    0.00000000    0.00000000
     atom   50 type  1   force =     0.00000000    0.00000000    0.00000000
     atom   51 type  1   force =     0.00000000    0.00000000    0.00000000
     atom   52 type  1   force =     0.00000000    0.00000000    0.00000000
     The Hubbard contrib.    to forces
     atom    1 type  1   force =     0.00000000    0.00000000    0.00000000
     atom    2 type  1   force =     0.00000000    0.00000000    0.00000000
     atom    3 type  1   force =     0.00000000    0.00000000    0.00000000
     atom    4 type  1   force =     0.00000000    0.00000000    0.00000000
     atom    5 type  1   force =     0.00000000    0.00000000    0.00000000
     atom    6 type  1   force =     0.00000000    0.00000000    0.00000000
     atom    7 type  1   force =     0.00000000    0.00000000    0.00000000
     atom    8 type  1   force =     0.00000000    0.00000000    0.00000000
     atom    9 type  1   force =     0.00000000    0.00000000    0.00000000
     atom   10 type  1   force =     0.00000000    0.00000000    0.00000000
     atom   11 type  1   force =     0.00000000    0.00000000    0.00000000
     atom   12 type  1   force =     0.00000000    0.00000000    0.00000000
     atom   13 type  1   force =     0.00000000    0.00000000    0.00000000
     atom   14 type  1   force =     0.00000000    0.00000000    0.00000000
     atom   15 type  1   force =     0.00000000    0.00000000    0.00000000
     atom   16 type  1   force =     0.00000000    0.00000000    0.00000000
     atom   17 type  1   force =     0.00000000    0.00000000    0.00000000
     atom   18 type  1   force =     0.00000000    0.00000000    0.00000000
     atom   19 type  1   force =     0.00000000    0.00000000    0.00000000
     atom   20 type  1   force =     0.00000000    0.00000000    0.00000000
     atom   21 type  1   force =     0.00000000    0.00000000    0.00000000
     atom   22 type  1   force =     0.00000000    0.00000000    0.00000000
     atom   23 type  1   force =     0.00000000    0.00000000    0.00000000
     atom   24 type  1   force =     0.00000000    0.00000000    0.00000000
     atom   25 type  1   force =     0.00000000    0.00000000    0.00000000
     atom   26 type  1   force =     0.00000000    0.00000000    0.00000000
     atom   27 type  1   force =     0.00000000    0.00000000    0.00000000
     atom   28 type  1   force =     0.00000000    0.00000000    0.00000000
     atom   29 type  1   force =     0.00000000    0.00000000    0.00000000
     atom   30 type  1   force =     0.00000000    0.00000000    0.00000000
     atom   31 type  1   force =     0.00000000    0.00000000    0.00000000
     atom   32 type  1   force =     0.00000000    0.00000000    0.00000000
     atom   33 type  1   force =     0.00000000    0.00000000    0.00000000
     atom   34 type  1   force =     0.00000000    0.00000000    0.00000000
     atom   35 type  1   force =     0.00000000    0.00000000    0.00000000
     atom   36 type  1   force =     0.00000000    0.00000000    0.00000000
     atom   37 type  1   force =     0.00000000    0.00000000    0.00000000
     atom   38 type  1   force =     0.00000000    0.00000000    0.00000000
     atom   39 type  1   force =     0.00000000    0.00000000    0.00000000
     atom   40 type  1   force =     0.00000000    0.00000000    0.00000000
     atom   41 type  1   force =     0.00000000    0.00000000    0.00000000
     atom   42 type  1   force =     0.00000000    0.00000000    0.00000000
     atom   43 type  1   force =     0.00000000    0.00000000    0.00000000
     atom   44 type  1   force =     0.00000000    0.00000000    0.00000000
     atom   45 type  1   force =     0.00000000    0.00000000    0.00000000
     atom   46 type  1   force =     0.00000000    0.00000000    0.00000000
     atom   47 type  1   force =     0.00000000    0.00000000    0.00000000
     atom   48 type  1   force =     0.00000000    0.00000000    0.00000000
     atom   49 type  1   force =     0.00000000    0.00000000    0.00000000
     atom   50 type  1   force =     0.00000000    0.00000000    0.00000000
     atom   51 type  1   force =     0.00000000    0.00000000    0.00000000
     atom   52 type  1   force =     0.00000000    0.00000000    0.00000000
     The SCF correction term to forces
     atom    1 type  1   force =     0.00000000    0.00000031   -0.00000072
     atom    2 type  1   force =     0.00000000   -0.00000044    0.00000338
     atom    3 type  1   force =     0.00000000    0.00000002    0.00000002
     atom    4 type  1   force =     0.00000000   -0.00000018    0.00000285
     atom    5 type  1   force =     0.00000000    0.00000004   -0.00000003
     atom    6 type  1   force =    -0.00000000    0.00000018    0.00000037
     atom    7 type  1   force =    -0.00000000    0.00000001   -0.00000001
     atom    8 type  1   force =    -0.00000000   -0.00000001   -0.00000000
     atom    9 type  1   force =    -0.00000000    0.00000003    0.00000012
     atom   10 type  1   force =    -0.00000000   -0.00000178    0.00000028
     atom   11 type  1   force =    -0.00000000   -0.00000019   -0.00000918
     atom   12 type  1   force =    -0.00000000   -0.00000031    0.00000063
     atom   13 type  1   force =    -0.00000000   -0.00000413   -0.00000184
     atom   14 type  1   force =     0.00000000   -0.00000010   -0.00000011
     atom   15 type  1   force =     0.00000000   -0.00000000    0.00000003
     atom   16 type  1   force =     0.00000000   -0.00000014   -0.00000037
     atom   17 type  1   force =    -0.00000000   -0.00000012   -0.00000005
     atom   18 type  1   force =    -0.00000000    0.00000013   -0.00000282
     atom   19 type  1   force =    -0.00000000    0.00000003    0.00000013
     atom   20 type  1   force =    -0.00000000    0.00000004   -0.00000004
     atom   21 type  1   force =    -0.00000000    0.00000041   -0.00000325
     atom   22 type  1   force =    -0.00000000   -0.00000046    0.00000062
     atom   23 type  1   force =    -0.00000000    0.00000024   -0.00000044
     atom   24 type  1   force =    -0.00000000    0.00000403    0.00000183
     atom   25 type  1   force =    -0.00000000    0.00000177   -0.00000050
     atom   26 type  1   force =    -0.00000000    0.00000026    0.00000913
     atom   27 type  1   force =     0.00000000    0.00000031   -0.00000073
     atom   28 type  1   force =     0.00000000   -0.00000044    0.00000337
     atom   29 type  1   force =    -0.00000000    0.00000002    0.00000002
     atom   30 type  1   force =     0.00000000   -0.00000018    0.00000285
     atom   31 type  1   force =    -0.00000000    0.00000004   -0.00000003
     atom   32 type  1   force =    -0.00000000    0.00000018    0.00000037
     atom   33 type  1   force =    -0.00000000    0.00000001   -0.00000001
     atom   34 type  1   force =     0.00000000   -0.00000001   -0.00000000
     atom   35 type  1   force =    -0.00000000    0.00000003    0.00000012
     atom   36 type  1   force =     0.00000000   -0.00000178    0.00000027
     atom   37 type  1   force =    -0.00000000   -0.00000019   -0.00000918
     atom   38 type  1   force =     0.00000000   -0.00000031    0.00000064
     atom   39 type  1   force =    -0.00000000   -0.00000412   -0.00000184
     atom   40 type  1   force =    -0.00000000   -0.00000010   -0.00000011
     atom   41 type  1   force =    -0.00000000   -0.00000000    0.00000003
     atom   42 type  1   force =    -0.00000000   -0.00000014   -0.00000037
     atom   43 type  1   force =     0.00000000   -0.00000012   -0.00000005
     atom   44 type  1   force =     0.00000000    0.00000013   -0.00000282
     atom   45 type  1   force =     0.00000000    0.00000003    0.00000013
     atom   46 type  1   force =     0.00000000    0.00000004   -0.00000004
     atom   47 type  1   force =     0.00000000    0.00000041   -0.00000325
     atom   48 type  1   force =     0.00000000   -0.00000046    0.00000062
     atom   49 type  1   force =     0.00000000    0.00000024   -0.00000044
     atom   50 type  1   force =     0.00000000    0.00000403    0.00000183
     atom   51 type  1   force =     0.00000000    0.00000177   -0.00000050
     atom   52 type  1   force =     0.00000000    0.00000026    0.00000913

     Total force =     0.001608     Total SCF correction =     0.000023
     Energy error            =      8.2E-06 Ry
     Gradient error          =      2.6E-04 Ry/Bohr

     bfgs converged in  22 scf cycles and  21 bfgs steps
     (criteria: energy <  1.0E-05 Ry, force <  3.9E-04 Ry/Bohr)

     End of BFGS Geometry Optimization

     Final energy             =    -782.1035736220 Ry

     File ./Li/Lithium.bfgs deleted, as requested
Begin final coordinates

ATOMIC_POSITIONS (angstrom)
Li               0.0000000000        7.8422305368       31.1317163121
Li               0.0000000000       10.3620145427       29.4355997328
Li               0.0000000000        2.7477477016       29.6009670088
Li               0.0000000000        5.6848885070       28.3801345455
Li               0.0000000000        8.5531471296       26.1960114327
Li               0.0000000000       11.3523446370       24.6676120784
Li               0.0000000000        0.8711364123       27.2192095249
Li               0.0000000000        3.9345934614       25.0099936035
Li               0.0000000000        6.7096766120       23.3463551807
Li               0.0000000000        9.7538368125       21.2652319668
Li               0.0000000000        2.0406631805       22.3128825905
Li               0.0000000000        4.1169646200       20.1336554228
Li               0.0000000000        1.2252263630       32.2015654325
Li               1.7175782693        8.0578006238       28.6987455350
Li               1.7175765144       10.8328998827       27.0350951930
Li               1.7175790808        3.4151549731       27.3774513788
Li               1.7175772546        6.2143438027       25.8490795782
Li               1.7175759109        9.0825996086       23.6649693276
Li               1.7175758457       12.0197355808       22.4441033470
Li               1.7175775188        1.5107306429       24.8258581848
Li               1.7175764935        4.4054518410       22.6095193771
Li               1.7175767090        6.9252198351       20.9133952650
Li               1.7175772108       10.6505091458       31.9114810036
Li               1.7175782344        1.1566591475       19.8435677927
Li               1.7175788866        5.0136272291       30.7798767966
Li               1.7175772914        0.3411849975       29.7322347619
Li               3.4351562293        7.8422316288       31.1317148863
Li               3.4351562293       10.3620193026       29.4355962883
Li               3.4351562293        2.7477478467       29.6009718317
Li               3.4351562293        5.6848878003       28.3801338413
Li               3.4351562293        8.5531476507       26.1960114388
Li               3.4351562293       11.3523476545       24.6676119605
Li               3.4351562293        0.8711382383       27.2192159228
Li               3.4351562293        3.9345930708       25.0099917769
Li               3.4351562293        6.7096767537       23.3463541245
Li               3.4351562293        9.7538360843       21.2652425347
Li               3.4351562293        2.0406609403       22.3128837887
Li               3.4351562293        4.1169648251       20.1336595617
Li               3.4351562293        1.2252216335       32.2015672174
Li               5.1527341894        8.0578006238       28.6987455350
Li               5.1527359443       10.8328998827       27.0350951930
Li               5.1527333779        3.4151549731       27.3774513788
Li               5.1527352041        6.2143438027       25.8490795782
Li               5.1527365478        9.0825996086       23.6649693276
Li               5.1527366130       12.0197355808       22.4441033470
Li               5.1527349399        1.5107306429       24.8258581848
Li               5.1527359652        4.4054518410       22.6095193771
Li               5.1527357497        6.9252198351       20.9133952650
Li               5.1527352479       10.6505091458       31.9114810036
Li               5.1527342243        1.1566591475       19.8435677927
Li               5.1527335721        5.0136272291       30.7798767966
Li               5.1527351673        0.3411849975       29.7322347619
End final coordinates

     Writing all to output data dir ./Li/Lithium.save/ :
     XML data file

     General routines

     Parallel routines

     PAW routines

     Environ routines

   This run was terminated on:   9:18:31   5Jan2025

   JOB DONE.