     Program PWSCF v.7.4 starts on 24Jan2025 at  1:57:34

     Reading input from espresso.pwi
Warning: card &CELL ignored
Warning: card    PRESS_CONV_THR   = 0.1 ignored
Warning: card    CELL_DOFREE      = 'ALL' ignored
Warning: card / ignored
Warning: card &FCP ignored
Warning: card / ignored
Warning: card &RISM ignored
Warning: card / ignored

     Current dimensions of program PWSCF are:
     Max number of different atomic species (ntypx) = 10
     Max number of k-points (npk) =  40000
     Max angular momentum in pseudopotentials (lmaxx) =  4

     IMPORTANT: XC functional enforced from input :
     Exchange-correlation= PBE
                           (   1   4   3   4   0   0   0)
     Any further DFT definition will be discarded
     Please, verify this is what you really want

     Reading input from environ.in:
     * using ionic solvent mode
     * setting boundary derivatives method to SSCS default
     * setting electrolyte-boundary derivatives method to SSCS default

Environ Warning (1001): card EOF ignored

     K-points division:     npool     =       2
     R & G space division:  proc/nbgrp/npool/nimage =     256
     Subspace diagonalization in iterative solution of the eigenvalue problem:
     a serial algorithm will be used

     Using Slab Decomposition

     bravais-lattice index     =           12
     lattice parameter (alat)  =      11.2436  a.u.
     unit-cell volume          =   15431.5264 (a.u.)^3
     number of atoms/cell      =           28
     number of atomic types    =            1
     number of electrons       =        84.00
     number of Kohn-Sham states=           63
     kinetic-energy cutoff     =      80.0000  Ry
     charge density cutoff     =     800.0000  Ry
     scf convergence threshold =      1.0E-06
     mixing beta               =       0.2000
     number of iterations used =            8  local-TF  mixing
     energy convergence thresh.=      1.0E-05
     force convergence thresh. =      3.9E-04
     Exchange-correlation= PBE
                           (   1   4   3   4   0   0   0)
     nstep                     =          999

                                  Environ Setup Summary

          O. Andreussi, I. Dabo and N. Marzari, J. Chem. Phys. 136, 064102 (2012)
          F. Nattino, M. Truscott, N. Marzari, and O. Andreussi, J. Chem. Phys. 150, 041722 (2019)

     in publications or presentations arising from this work.

     Parameters

     compensation onset threshold      =               0.1000E+00
     static permittivity               =                    89.90
     surface tension in input (dyn/cm) =                    37.30
     surface tension in internal units =               0.4792E-04

     Solvent Boundary

     solvent mode                      =                    ionic
     derivatives method                =                   lowmem
     electrolyte derivatives method    =                   lowmem
     numerical core for derivatives    =                      fft
     switching function adopted        =                     SCCS
     density limit for vacuum region   =               0.5000E-02
     density limit for bulk solvent    =               0.1000E-03
     soft-sphere radius mode           =                    bondi
     soft-sphere softness              =                     0.50
     alpha                             =                     1.32

     Electrostatic Setup

     electrostatic problem to solve    =                    modpb
     numerical solver adopted          =                   newton
     type of auxiliary density adopted =                     none
     numerical core for poisson        =                      fft
     adopting a nested solver scheme
     inner solver                      =                       cg
     inner core                        =                      fft
     type of pbc corrections           =                parabolic
     numerical core for corrections    =                      1da

     >>>>> Grand-Canonical SCF is activated <<<<<
     Initial Total Charge  =     0.000000 e
     Target Fermi Energy   =    -1.654000 eV
     Thr. of Fermi Energy  =     0.001000 eV
     Wave-shift of Kerker  =     0.400000 bohr^-1
     Wave-shift of Hartree =     1.500000 bohr^-1
     Mixing Rate of Fermi  =     0.050000

     celldm(1)=  11.243615  celldm(2)=   1.258306  celldm(3)=   8.704589
     celldm(4)=  -0.132454  celldm(5)=   0.000000  celldm(6)=   0.000000

     crystal axes: (cart. coord. in units of alat)
               a(1) = (   1.000000   0.000000   0.000000 )
               a(2) = (  -0.166667   1.247219   0.000000 )
               a(3) = (   0.000000   0.000000   8.704589 )

     reciprocal axes: (cart. coord. in units 2 pi/alat)
               b(1) = (  1.000000  0.133631 -0.000000 )
               b(2) = (  0.000000  0.801784  0.000000 )
               b(3) = (  0.000000 -0.000000  0.114882 )

     PseudoPot. # 1 for Li read from file:
     /work/e89/e89/ba3g18/Repos/Pseudopotentials/Pslibrary/Li.pbe-sl-kjpaw_psl.1.0.0.UPF
     MD5 check sum: 3f4d2cafebb47c6c3aa8ed472e6f074d
     Pseudo is Projector augmented-wave, Zval =  3.0
     Generated using 'atomic' code by A. Dal Corso  v.7.4
     Shape of augmentation charge: PSQ
     Using radial grid of 1017 points,  4 beta functions with:
                l(1) =   0
                l(2) =   0
                l(3) =   1
                l(4) =   1
     Q(r) pseudized with 0 coefficients

     atomic species   valence    mass     pseudopotential
     Li                3.00     6.94000     Li( 1.00)

     No symmetry found

                                    s                        frac. trans.

      isym =  1     identity

 cryst.   s( 1) = (     1          0          0      )
                  (     0          1          0      )
                  (     0          0          1      )

 cart.    s( 1) = (  1.0000000  0.0000000  0.0000000 )
                  (  0.0000000  1.0000000  0.0000000 )
                  (  0.0000000  0.0000000  1.0000000 )

     point group C_1 (1)
     there are  1 classes
     the character table:

       E
A      1.00

     the symmetry operations in each class and the name of the first element:

     E        1
          identity

   Cartesian axes

     site n.     atom                  positions (alat units)
         1        Li     tau(   1) = (   0.0500877  -0.0210094   5.3284027  )
         2        Li     tau(   2) = (  -0.0502290   0.8229316   3.3758597  )
         3        Li     tau(   3) = (   0.1382799   0.3633652   3.4711143  )
         4        Li     tau(   4) = (   0.1760156   1.1795854   3.6580594  )
         5        Li     tau(   5) = (   0.2784212   0.7049583   3.8143610  )
         6        Li     tau(   6) = (   0.0170018   0.2822686   3.9572932  )
         7        Li     tau(   7) = (  -0.0231906   1.0614878   4.1069639  )
         8        Li     tau(   8) = (   0.1659147   0.6299554   4.2963462  )
         9        Li     tau(   9) = (   0.3342576   0.1717581   4.4083541  )
        10        Li     tau(  10) = (   0.3566568   0.9873921   4.5978308  )
        11        Li     tau(  11) = (  -0.0168533   0.5194891   4.7473581  )
        12        Li     tau(  12) = (   0.2215714   0.0968395   4.8900645  )
        13        Li     tau(  13) = (   0.1572764   0.8694219   5.0466831  )
        14        Li     tau(  14) = (   0.3614585   0.4384803   5.2334293  )
        15        Li     tau(  15) = (   0.5500895  -0.0210097   5.3284027  )
        16        Li     tau(  16) = (   0.4497621   0.8229296   3.3758634  )
        17        Li     tau(  17) = (   0.6382818   0.3633623   3.4711131  )
        18        Li     tau(  18) = (   0.6760180   1.1795913   3.6580620  )
        19        Li     tau(  19) = (   0.7784117   0.7049534   3.8143683  )
        20        Li     tau(  20) = (   0.5170111   0.2822754   3.9572941  )
        21        Li     tau(  21) = (   0.4768109   1.0614878   4.1069653  )
        22        Li     tau(  22) = (   0.6659158   0.6299551   4.2963387  )
        23        Li     tau(  23) = (   0.8342573   0.1717576   4.4083533  )
        24        Li     tau(  24) = (   0.8566589   0.9873930   4.5978325  )
        25        Li     tau(  25) = (   0.4831420   0.5194875   4.7473595  )
        26        Li     tau(  26) = (   0.7215699   0.0968383   4.8900661  )
        27        Li     tau(  27) = (   0.6572771   0.8694223   5.0466835  )
        28        Li     tau(  28) = (   0.8614587   0.4384807   5.2334300  )

   Crystallographic axes

     site n.     atom                  positions (cryst. coord.)
         1        Li     tau(   1) = (  0.0472802 -0.0168450  0.6121372  )
         2        Li     tau(   2) = (  0.0597401  0.6598132  0.3878253  )
         3        Li     tau(   3) = (  0.1868367  0.2913403  0.3987683  )
         4        Li     tau(   4) = (  0.3336447  0.9457725  0.4202449  )
         5        Li     tau(   5) = (  0.3726254  0.5652241  0.4382012  )
         6        Li     tau(   6) = (  0.0547216  0.2263184  0.4546215  )
         7        Li     tau(   7) = (  0.1186570  0.8510837  0.4718159  )
         8        Li     tau(   8) = (  0.2500962  0.5050880  0.4935726  )
         9        Li     tau(   9) = (  0.3572098  0.1377129  0.5064402  )
        10        Li     tau(  10) = (  0.4886029  0.7916750  0.5282077  )
        11        Li     tau(  11) = (  0.0525665  0.4165180  0.5453857  )
        12        Li     tau(  12) = (  0.2345121  0.0776443  0.5617801  )
        13        Li     tau(  13) = (  0.2734581  0.6970884  0.5797727  )
        14        Li     tau(  14) = (  0.4200530  0.3515664  0.6012265  )
        15        Li     tau(  15) = (  0.5472819 -0.0168452  0.6121372  )
        16        Li     tau(  16) = (  0.5597309  0.6598116  0.3878257  )
        17        Li     tau(  17) = (  0.6868382  0.2913380  0.3987682  )
        18        Li     tau(  18) = (  0.8336479  0.9457772  0.4202452  )
        19        Li     tau(  19) = (  0.8726152  0.5652202  0.4382020  )
        20        Li     tau(  20) = (  0.5547318  0.2263239  0.4546216  )
        21        Li     tau(  21) = (  0.6186585  0.8510837  0.4718161  )
        22        Li     tau(  22) = (  0.7500973  0.5050878  0.4935717  )
        23        Li     tau(  23) = (  0.8572094  0.1377125  0.5064401  )
        24        Li     tau(  24) = (  0.9886051  0.7916757  0.5282079  )
        25        Li     tau(  25) = (  0.5525616  0.4165167  0.5453858  )
        26        Li     tau(  26) = (  0.7345105  0.0776434  0.5617802  )
        27        Li     tau(  27) = (  0.7734588  0.6970887  0.5797727  )
        28        Li     tau(  28) = (  0.9200533  0.3515668  0.6012265  )

     number of k points=    50  Marzari-Vanderbilt smearing, width (Ry)=  0.0100
                       cart. coord. in units 2pi/alat
        k(    1) = (   0.0000000   0.0000000   0.0000000), wk =   0.0202020
        k(    2) = (   0.0000000   0.0890871   0.0000000), wk =   0.0404040
        k(    3) = (   0.0000000   0.1781742   0.0000000), wk =   0.0404040
        k(    4) = (   0.0000000   0.2672613   0.0000000), wk =   0.0404040
[...]
     atom   16 type  1   force =     0.00000086   -0.00011211   -0.00014561
     atom   17 type  1   force =     0.00013516    0.00009718    0.00014571
     atom   18 type  1   force =     0.00012245   -0.00018408    0.00014211
     atom   19 type  1   force =     0.00002632    0.00005420    0.00025114
     atom   20 type  1   force =    -0.00011712    0.00017504   -0.00014740
     atom   21 type  1   force =    -0.00011804   -0.00028391    0.00036262
     atom   22 type  1   force =    -0.00010263   -0.00001814    0.00009389
     atom   23 type  1   force =     0.00011194    0.00002009   -0.00012945
     atom   24 type  1   force =     0.00010621    0.00028269   -0.00038147
     atom   25 type  1   force =     0.00011356   -0.00017135    0.00016806
     atom   26 type  1   force =    -0.00001247   -0.00005398   -0.00019477
     atom   27 type  1   force =    -0.00013438    0.00018356   -0.00014496
     atom   28 type  1   force =    -0.00013453   -0.00011609   -0.00016444
     The non-local contrib.  to forces
     atom    1 type  1   force =     0.00037364   -0.01417050    0.03193315
     atom    2 type  1   force =    -0.00037694    0.01420238   -0.03191086
     atom    3 type  1   force =    -0.00016071   -0.01378078   -0.03295351
     atom    4 type  1   force =     0.00066239    0.00363621   -0.01067781
     atom    5 type  1   force =    -0.00134112   -0.00379127    0.00486125
     atom    6 type  1   force =     0.00141556    0.00131292    0.00088663
     atom    7 type  1   force =    -0.00070239   -0.00186129    0.00069064
     atom    8 type  1   force =     0.00000276    0.00124478    0.00493917
     atom    9 type  1   force =    -0.00000934   -0.00125178   -0.00495577
     atom   10 type  1   force =     0.00072135    0.00185083   -0.00061871
     atom   11 type  1   force =    -0.00141297   -0.00129724   -0.00081074
     atom   12 type  1   force =     0.00132076    0.00379931   -0.00475876
     atom   13 type  1   force =    -0.00065249   -0.00364343    0.01077038
     atom   14 type  1   force =     0.00015831    0.01375919    0.03298721
     atom   15 type  1   force =     0.00037255   -0.01417068    0.03193318
     atom   16 type  1   force =    -0.00037070    0.01420261   -0.03191152
     atom   17 type  1   force =    -0.00016132   -0.01378112   -0.03295597
     atom   18 type  1   force =     0.00066202    0.00363273   -0.01067955
     atom   19 type  1   force =    -0.00133720   -0.00378916    0.00485762
     atom   20 type  1   force =     0.00141016    0.00131016    0.00088627
     atom   21 type  1   force =    -0.00070457   -0.00186069    0.00069130
     atom   22 type  1   force =     0.00000249    0.00124568    0.00494373
     atom   23 type  1   force =    -0.00000973   -0.00125147   -0.00495336
     atom   24 type  1   force =     0.00071974    0.00185088   -0.00061855
     atom   25 type  1   force =    -0.00141010   -0.00129649   -0.00081102
     atom   26 type  1   force =     0.00132142    0.00380026   -0.00475953
     atom   27 type  1   force =    -0.00065293   -0.00364419    0.01076938
     atom   28 type  1   force =     0.00015830    0.01375931    0.03298652
     The ionic contribution  to forces
     atom    1 type  1   force =     0.00088536   -0.22886461   12.96460932
     atom    2 type  1   force =    -0.00090576    0.22916680  -12.96526077
     atom    3 type  1   force =     0.00167510   -0.34005760  -12.07540563
     atom    4 type  1   force =    -0.00021911    0.12390606   -9.77638560
     atom    5 type  1   force =     0.00578536    0.01569892   -7.33715905
     atom    6 type  1   force =    -0.00599336   -0.04539132   -5.45811387
     atom    7 type  1   force =     0.00195580    0.01645998   -3.35475850
     atom    8 type  1   force =    -0.00110035    0.01799016   -0.76269807
     atom    9 type  1   force =     0.00117787   -0.01798780    0.76148205
     atom   10 type  1   force =    -0.00203186   -0.01663367    3.35566274
     atom   11 type  1   force =     0.00600005    0.04570966    5.45805974
     atom   12 type  1   force =    -0.00572840   -0.01571134    7.33500872
     atom   13 type  1   force =     0.00012811   -0.12401201    9.77876631
     atom   14 type  1   force =    -0.00164806    0.33973998   12.07617668
     atom   15 type  1   force =     0.00086795   -0.22886645   12.96461305
     atom   16 type  1   force =    -0.00079971    0.22917294  -12.96525817
     atom   17 type  1   force =     0.00166075   -0.34004366  -12.07544324
     atom   18 type  1   force =    -0.00022564    0.12384236   -9.77639240
     atom   19 type  1   force =     0.00588797    0.01574360   -7.33714033
     atom   20 type  1   force =    -0.00611935   -0.04544935   -5.45810899
     atom   21 type  1   force =     0.00191452    0.01646874   -3.35473463
     atom   22 type  1   force =    -0.00110767    0.01799958   -0.76271796
     atom   23 type  1   force =     0.00117950   -0.01798512    0.76150746
     atom   24 type  1   force =    -0.00206356   -0.01663989    3.35568060
     atom   25 type  1   force =     0.00606330    0.04572626    5.45806629
     atom   26 type  1   force =    -0.00571162   -0.01570000    7.33501356
     atom   27 type  1   force =     0.00012437   -0.12402343    9.77875686
     atom   28 type  1   force =    -0.00165156    0.33974121   12.07617383
     The local contribution  to forces
     atom    1 type  1   force =    -0.00070318    0.22193368  -12.86310592
     atom    2 type  1   force =     0.00072697   -0.22228053   12.86387623
     atom    3 type  1   force =    -0.00120563    0.31619458   11.93081549
     atom    4 type  1   force =     0.00005385   -0.11384625    9.61521766
     atom    5 type  1   force =    -0.00425362   -0.01108750    7.22482672
     atom    6 type  1   force =     0.00430558    0.04022065    5.36935430
     atom    7 type  1   force =    -0.00127861   -0.01307047    3.30055808
     atom    8 type  1   force =     0.00098050   -0.01912671    0.74664317
     atom    9 type  1   force =    -0.00104237    0.01911990   -0.74542576
     atom   10 type  1   force =     0.00132637    0.01327210   -3.30154227
     atom   11 type  1   force =    -0.00431553   -0.04054716   -5.36944641
     atom   12 type  1   force =     0.00422433    0.01107605   -7.22290322
     atom   13 type  1   force =     0.00001623    0.11397068   -9.61776043
     atom   14 type  1   force =     0.00118571   -0.31587192  -11.93168059
     atom   15 type  1   force =    -0.00068580    0.22193563  -12.86310950
     atom   16 type  1   force =     0.00062144   -0.22228628   12.86387033
     atom   17 type  1   force =    -0.00119171    0.31618173   11.93085494
     atom   18 type  1   force =     0.00005984   -0.11378376    9.61522427
     atom   19 type  1   force =    -0.00435325   -0.01113149    7.22480724
     atom   20 type  1   force =     0.00442954    0.04027716    5.36934916
     atom   21 type  1   force =    -0.00123705   -0.01307952    3.30053384
     atom   22 type  1   force =     0.00098743   -0.01913672    0.74666215
     atom   23 type  1   force =    -0.00104325    0.01911765   -0.74545198
     atom   24 type  1   force =     0.00135816    0.01327827   -3.30156076
     atom   25 type  1   force =    -0.00437813   -0.04056322   -5.36945334
     atom   26 type  1   force =     0.00420815    0.01106459   -7.22290799
     atom   27 type  1   force =     0.00001992    0.11398222   -9.61775053
     atom   28 type  1   force =     0.00118881   -0.31587331  -11.93167765
     The core correction contribution to forces
     atom    1 type  1   force =     0.00000000    0.00000000    0.00000000
     atom    2 type  1   force =     0.00000000    0.00000000    0.00000000
     atom    3 type  1   force =     0.00000000    0.00000000    0.00000000
     atom    4 type  1   force =     0.00000000    0.00000000    0.00000000
     atom    5 type  1   force =     0.00000000    0.00000000    0.00000000
     atom    6 type  1   force =     0.00000000    0.00000000    0.00000000
     atom    7 type  1   force =     0.00000000    0.00000000    0.00000000
     atom    8 type  1   force =     0.00000000    0.00000000    0.00000000
     atom    9 type  1   force =     0.00000000    0.00000000    0.00000000
     atom   10 type  1   force =     0.00000000    0.00000000    0.00000000
     atom   11 type  1   force =     0.00000000    0.00000000    0.00000000
     atom   12 type  1   force =     0.00000000    0.00000000    0.00000000
     atom   13 type  1   force =     0.00000000    0.00000000    0.00000000
     atom   14 type  1   force =     0.00000000    0.00000000    0.00000000
     atom   15 type  1   force =     0.00000000    0.00000000    0.00000000
     atom   16 type  1   force =     0.00000000    0.00000000    0.00000000
     atom   17 type  1   force =     0.00000000    0.00000000    0.00000000
     atom   18 type  1   force =     0.00000000    0.00000000    0.00000000
     atom   19 type  1   force =     0.00000000    0.00000000    0.00000000
     atom   20 type  1   force =     0.00000000    0.00000000    0.00000000
     atom   21 type  1   force =     0.00000000    0.00000000    0.00000000
     atom   22 type  1   force =     0.00000000    0.00000000    0.00000000
     atom   23 type  1   force =     0.00000000    0.00000000    0.00000000
     atom   24 type  1   force =     0.00000000    0.00000000    0.00000000
     atom   25 type  1   force =     0.00000000    0.00000000    0.00000000
     atom   26 type  1   force =     0.00000000    0.00000000    0.00000000
     atom   27 type  1   force =     0.00000000    0.00000000    0.00000000
     atom   28 type  1   force =     0.00000000    0.00000000    0.00000000
     The Hubbard contrib.    to forces
     atom    1 type  1   force =     0.00000000    0.00000000    0.00000000
     atom    2 type  1   force =     0.00000000    0.00000000    0.00000000
     atom    3 type  1   force =     0.00000000    0.00000000    0.00000000
     atom    4 type  1   force =     0.00000000    0.00000000    0.00000000
     atom    5 type  1   force =     0.00000000    0.00000000    0.00000000
     atom    6 type  1   force =     0.00000000    0.00000000    0.00000000
     atom    7 type  1   force =     0.00000000    0.00000000    0.00000000
     atom    8 type  1   force =     0.00000000    0.00000000    0.00000000
     atom    9 type  1   force =     0.00000000    0.00000000    0.00000000
     atom   10 type  1   force =     0.00000000    0.00000000    0.00000000
     atom   11 type  1   force =     0.00000000    0.00000000    0.00000000
     atom   12 type  1   force =     0.00000000    0.00000000    0.00000000
     atom   13 type  1   force =     0.00000000    0.00000000    0.00000000
     atom   14 type  1   force =     0.00000000    0.00000000    0.00000000
     atom   15 type  1   force =     0.00000000    0.00000000    0.00000000
     atom   16 type  1   force =     0.00000000    0.00000000    0.00000000
     atom   17 type  1   force =     0.00000000    0.00000000    0.00000000
     atom   18 type  1   force =     0.00000000    0.00000000    0.00000000
     atom   19 type  1   force =     0.00000000    0.00000000    0.00000000
     atom   20 type  1   force =     0.00000000    0.00000000    0.00000000
     atom   21 type  1   force =     0.00000000    0.00000000    0.00000000
     atom   22 type  1   force =     0.00000000    0.00000000    0.00000000
     atom   23 type  1   force =     0.00000000    0.00000000    0.00000000
     atom   24 type  1   force =     0.00000000    0.00000000    0.00000000
     atom   25 type  1   force =     0.00000000    0.00000000    0.00000000
     atom   26 type  1   force =     0.00000000    0.00000000    0.00000000
     atom   27 type  1   force =     0.00000000    0.00000000    0.00000000
     atom   28 type  1   force =     0.00000000    0.00000000    0.00000000
     The SCF correction term to forces
     atom    1 type  1   force =     0.00000063   -0.00014361    0.00005360
     atom    2 type  1   force =     0.00000042    0.00016541    0.00004075
     atom    3 type  1   force =     0.00000509   -0.00013353    0.00005937
     atom    4 type  1   force =     0.00000476   -0.00008150    0.00036728
     atom    5 type  1   force =     0.00000110    0.00021508    0.00042330
     atom    6 type  1   force =    -0.00000546   -0.00020555    0.00045997
     atom    7 type  1   force =    -0.00000637    0.00007824    0.00017355
     atom    8 type  1   force =    -0.00000486    0.00000150    0.00021606
     atom    9 type  1   force =     0.00000623    0.00001106   -0.00010424
     atom   10 type  1   force =     0.00000510   -0.00009729   -0.00001720
     atom   11 type  1   force =     0.00000438    0.00020652   -0.00023599
     atom   12 type  1   force =     0.00000048   -0.00020801   -0.00013198
     atom   13 type  1   force =    -0.00000531    0.00008812   -0.00012111
     atom   14 type  1   force =    -0.00000584    0.00010288    0.00008985
     atom   15 type  1   force =     0.00000048   -0.00014362    0.00005358
     atom   16 type  1   force =    -0.00000034    0.00016538    0.00004109
     atom   17 type  1   force =     0.00000514   -0.00013355    0.00006011
     atom   18 type  1   force =     0.00000396   -0.00008100    0.00036801
     atom   19 type  1   force =    -0.00000093    0.00021441    0.00042415
     atom   20 type  1   force =    -0.00000257   -0.00020484    0.00045999
     atom   21 type  1   force =    -0.00000496    0.00007841    0.00017311
     atom   22 type  1   force =    -0.00000494    0.00000122    0.00021481
     atom   23 type  1   force =     0.00000566    0.00001110   -0.00010526
     atom   24 type  1   force =     0.00000576   -0.00009738   -0.00001734
     atom   25 type  1   force =     0.00000328    0.00020625   -0.00023599
     atom   26 type  1   force =    -0.00000003   -0.00020817   -0.00013187
     atom   27 type  1   force =    -0.00000549    0.00008825   -0.00012074
     atom   28 type  1   force =    -0.00000547    0.00010290    0.00009013

     Total force =     0.001467     Total SCF correction =     0.001413
     SCF correction compared to forces is large: reduce conv_thr to get better values
     Energy error            =      3.1E-06 Ry
     Gradient error          =      3.8E-04 Ry/Bohr

     bfgs converged in   4 scf cycles and   1 bfgs steps
     (criteria: energy <  1.0E-05 Ry, force <  3.9E-04 Ry/Bohr)

     End of BFGS Geometry Optimization

     Final energy             =    -421.2083925579 Ry

     File ./Li/Lithium.bfgs deleted, as requested
Begin final coordinates

ATOMIC_POSITIONS (angstrom)
Li               0.2980176735       -0.1249024521       31.7033746595
Li              -0.2988574713        4.8962295756       20.0858747866
Li               0.8228179931        2.1620569644       20.6527813134
Li               1.0473364830        7.0182921221       21.7650036607
Li               1.6565811448        4.1943901589       22.6950177700
Li               0.1010963605        1.6795977123       23.5452051015
Li              -0.1380412698        6.3155404085       24.4360503991
Li               0.9871129272        3.7481443709       25.5626857942
Li               1.9888499483        1.0219402785       26.2290478256
Li               2.1221152809        5.8750203898       27.3562605576
Li              -0.1002135332        3.0907574825       28.2462765166
Li               1.3183118076        0.5761953768       29.0951465490
Li               0.9357006841        5.1730240217       30.0270428770
Li               2.1505581813        2.6088144481       31.1381136143
Li               3.2729598833       -0.1249040560       31.7033745646
Li               2.6760244118        4.8962177416       20.0858961175
Li               3.7977612839        2.1620402578       20.6527738649
Li               4.0222821756        7.0183254234       21.7650184331
Li               4.6314596781        4.1943627455       22.6950584669
Li               3.0760813077        1.6796362089       23.5452102066
Li               2.8368991810        6.3155407144       24.4360587919
Li               3.9620515467        3.7481432233       25.5626435407
Li               4.9637805724        1.0219375334       26.2290434739
Li               5.0970591492        5.8750255201       27.3562701913
Li               2.8746927036        3.0907480986       28.2462847476
Li               4.2932358782        0.5761891712       29.0951554528
Li               3.9106367946        5.1730261250       30.0270445194
Li               5.1254918488        2.6088174524       31.1381175825
End final coordinates

     Writing all to output data dir ./Li/Lithium.save/ :
     XML data file

     General routines

     Parallel routines

     PAW routines

     Environ routines

   This run was terminated on:   2:18:58  24Jan2025

   JOB DONE.