     Program PWSCF v.7.4 starts on  1Jan2025 at 19:36:37

     Reading input from espresso.pwi
Warning: card &CELL ignored
Warning: card    PRESS_CONV_THR   = 0.1 ignored
Warning: card    CELL_DOFREE      = 'ALL' ignored
Warning: card / ignored
Warning: card &FCP ignored
Warning: card / ignored
Warning: card &RISM ignored
Warning: card / ignored

     Current dimensions of program PWSCF are:
     Max number of different atomic species (ntypx) = 10
     Max number of k-points (npk) =  40000
     Max angular momentum in pseudopotentials (lmaxx) =  4

     IMPORTANT: XC functional enforced from input :
     Exchange-correlation= PBE
                           (   1   4   3   4   0   0   0)
     Any further DFT definition will be discarded
     Please, verify this is what you really want

     Reading input from environ.in:
     * using ionic solvent mode
     * setting boundary derivatives method to SSCS default
     * setting electrolyte-boundary derivatives method to SSCS default

Environ Warning (1001): card EOF ignored

     R & G space division:  proc/nbgrp/npool/nimage =     256
     Subspace diagonalization in iterative solution of the eigenvalue problem:
     a serial algorithm will be used

     Using Slab Decomposition

     bravais-lattice index     =           14
     lattice parameter (alat)  =      11.2436  a.u.
     unit-cell volume          =   10615.2843 (a.u.)^3
     number of atoms/cell      =           16
     number of atomic types    =            1
     number of electrons       =        48.00
     number of Kohn-Sham states=           36
     kinetic-energy cutoff     =      80.0000  Ry
     charge density cutoff     =     800.0000  Ry
     scf convergence threshold =      1.0E-06
     mixing beta               =       0.2000
     number of iterations used =            8  local-TF  mixing
     energy convergence thresh.=      1.0E-05
     force convergence thresh. =      3.9E-04
     Exchange-correlation= PBE
                           (   1   4   3   4   0   0   0)
     nstep                     =          999

                                  Environ Setup Summary

          O. Andreussi, I. Dabo and N. Marzari, J. Chem. Phys. 136, 064102 (2012)
          F. Nattino, M. Truscott, N. Marzari, and O. Andreussi, J. Chem. Phys. 150, 041722 (2019)

     in publications or presentations arising from this work.

     Parameters

     compensation onset threshold      =               0.1000E+00
     static permittivity               =                    89.90
     surface tension in input (dyn/cm) =                    37.30
     surface tension in internal units =               0.4792E-04

     Solvent Boundary

     solvent mode                      =                    ionic
     derivatives method                =                   lowmem
     electrolyte derivatives method    =                   lowmem
     numerical core for derivatives    =                      fft
     switching function adopted        =                     SCCS
     density limit for vacuum region   =               0.5000E-02
     density limit for bulk solvent    =               0.1000E-03
     soft-sphere radius mode           =                    bondi
     soft-sphere softness              =                     0.50
     alpha                             =                     1.32

     Electrostatic Setup

     electrostatic problem to solve    =                    modpb
     numerical solver adopted          =                   newton
     type of auxiliary density adopted =                     none
     numerical core for poisson        =                      fft
     adopting a nested solver scheme
     inner solver                      =                       cg
     inner core                        =                      fft
     type of pbc corrections           =                parabolic
     numerical core for corrections    =                      1da

     >>>>> Grand-Canonical SCF is activated <<<<<
     Initial Total Charge  =     0.000000 e
     Target Fermi Energy   =    -3.404000 eV
     Thr. of Fermi Energy  =     0.001000 eV
     Wave-shift of Kerker  =     0.400000 bohr^-1
     Wave-shift of Hartree =     1.500000 bohr^-1
     Mixing Rate of Fermi  =     0.050000

     celldm(1)=  11.243615  celldm(2)=   1.000000  celldm(3)=   7.921182
     celldm(4)=   0.000000  celldm(5)=   0.000000  celldm(6)=  -0.333333

     crystal axes: (cart. coord. in units of alat)
               a(1) = (   1.000000   0.000000   0.000000 )
               a(2) = (  -0.333333   0.942809   0.000000 )
               a(3) = (   0.000000   0.000000   7.921182 )

     reciprocal axes: (cart. coord. in units 2 pi/alat)
               b(1) = (  1.000000  0.353553 -0.000000 )
               b(2) = (  0.000000  1.060660  0.000000 )
               b(3) = (  0.000000 -0.000000  0.126244 )

     PseudoPot. # 1 for Li read from file:
     /work/e89/e89/ba3g18/Repos/Pseudopotentials/Pslibrary/Li.pbe-sl-kjpaw_psl.1.0.0.UPF
     MD5 check sum: 3f4d2cafebb47c6c3aa8ed472e6f074d
     Pseudo is Projector augmented-wave, Zval =  3.0
     Generated using 'atomic' code by A. Dal Corso  v.7.4
     Shape of augmentation charge: PSQ
     Using radial grid of 1017 points,  4 beta functions with:
                l(1) =   0
                l(2) =   0
                l(3) =   1
                l(4) =   1
     Q(r) pseudized with 0 coefficients

     atomic species   valence    mass     pseudopotential
     Li                3.00     6.94000     Li( 1.00)

      2 Sym. Ops. (no inversion) found

                                    s                        frac. trans.

      isym =  1     identity

 cryst.   s( 1) = (     1          0          0      )
                  (     0          1          0      )
                  (     0          0          1      )

 cart.    s( 1) = (  1.0000000  0.0000000  0.0000000 )
                  (  0.0000000  1.0000000  0.0000000 )
                  (  0.0000000  0.0000000  1.0000000 )

      isym =  2     180 deg rotation - cart. axis [0,0,1]

 cryst.   s( 2) = (    -1          0          0      )
                  (     0         -1          0      )
                  (     0          0          1      )

 cart.    s( 2) = ( -1.0000000 -0.0000000  0.0000000 )
                  (  0.0000000 -1.0000000  0.0000000 )
                  (  0.0000000  0.0000000  1.0000000 )

     point group C_2  (2)
     there are  2 classes
     the character table:

       E     C2
A      1.00  1.00
B      1.00 -1.00

     the symmetry operations in each class and the name of the first element:

     E        1
          identity
     C2       2
          180 deg rotation - cart. axis [0,0,1]

   Cartesian axes

     site n.     atom                  positions (alat units)
         1        Li     tau(   1) = (   0.1666620   0.2357045   3.3634848  )
         2        Li     tau(   2) = (   0.3333333   0.4714046   3.7575258  )
         3        Li     tau(   3) = (   0.1666724   0.2356999   4.1636470  )
         4        Li     tau(   4) = (   0.3333333   0.4714046   4.5576956  )
         5        Li     tau(   5) = (   0.0000037   0.7071107   3.3634986  )
         6        Li     tau(   6) = (   0.1666667   0.9428090   3.7575379  )
         7        Li     tau(   7) = (  -0.0000058   0.7071014   4.1636551  )
         8        Li     tau(   8) = (   0.1666667   0.9428090   4.5576991  )
         9        Li     tau(   9) = (   0.6666630   0.2356983   3.3634986  )
        10        Li     tau(  10) = (   0.8333333   0.4714046   3.7575349  )
        11        Li     tau(  11) = (   0.6666725   0.2357077   4.1636551  )
        12        Li     tau(  12) = (   0.8333333   0.4714046   4.5577110  )
        13        Li     tau(  13) = (   0.5000047   0.7071046   3.3634848  )
        14        Li     tau(  14) = (   0.6666667   0.9428090   3.7575265  )
        15        Li     tau(  15) = (   0.4999943   0.7071091   4.1636470  )
        16        Li     tau(  16) = (   0.6666667   0.9428090   4.5576957  )

   Crystallographic axes

     site n.     atom                  positions (cryst. coord.)
         1        Li     tau(   1) = (  0.2499961  0.2500024  0.4246190  )
         2        Li     tau(   2) = (  0.4999999  0.5000001  0.4743643  )
         3        Li     tau(   3) = (  0.2500049  0.2499975  0.5256345  )
         4        Li     tau(   4) = (  0.4999999  0.5000001  0.5753807  )
         5        Li     tau(   5) = (  0.2500049  0.7500042  0.4246208  )
         6        Li     tau(   6) = (  0.4999997  1.0000001  0.4743658  )
         7        Li     tau(   7) = (  0.2499921  0.7499943  0.5256356  )
         8        Li     tau(   8) = (  0.4999997  1.0000000  0.5753812  )
         9        Li     tau(   9) = (  0.7499948  0.2499959  0.4246208  )
        10        Li     tau(  10) = (  0.9999999  0.5000001  0.4743654  )
        11        Li     tau(  11) = (  0.7500076  0.2500058  0.5256356  )
        12        Li     tau(  12) = (  0.9999999  0.5000001  0.5753827  )
        13        Li     tau(  13) = (  0.7500036  0.7499977  0.4246190  )
        14        Li     tau(  14) = (  0.9999997  1.0000000  0.4743643  )
        15        Li     tau(  15) = (  0.7499948  0.7500025  0.5256345  )
        16        Li     tau(  16) = (  0.9999997  1.0000000  0.5753807  )

     number of k points=    61  Marzari-Vanderbilt smearing, width (Ry)=  0.0100
                       cart. coord. in units 2pi/alat
        k(    1) = (   0.0000000   0.0000000   0.0000000), wk =   0.0165289
        k(    2) = (   0.0000000   0.0964237   0.0000000), wk =   0.0330579
        k(    3) = (   0.0000000   0.1928473   0.0000000), wk =   0.0330579
        k(    4) = (   0.0000000   0.2892710   0.0000000), wk =   0.0330579
        k(    5) = (   0.0000000   0.3856946   0.0000000), wk =   0.0330579
        k(    6) = (   0.0000000   0.4821183   0.0000000), wk =   0.0330579
        k(    7) = (   0.0909091   0.0321412   0.0000000), wk =   0.0330579
        k(    8) = (   0.0909091   0.1285648   0.0000000), wk =   0.0330579
        k(    9) = (   0.0909091   0.2249885   0.0000000), wk =   0.0330579
        k(   10) = (   0.0909091   0.3214122   0.0000000), wk =   0.0330579
        k(   11) = (   0.0909091   0.4178358   0.0000000), wk =   0.0330579
        k(   12) = (   0.0909091   0.5142595   0.0000000), wk =   0.0330579
        k(   13) = (   0.0909091  -0.4499771   0.0000000), wk =   0.0330579
        k(   14) = (   0.0909091  -0.3535534   0.0000000), wk =   0.0330579
        k(   15) = (   0.0909091  -0.2571298   0.0000000), wk =   0.0330579
        k(   16) = (   0.0909091  -0.1607061   0.0000000), wk =   0.0330579
        k(   17) = (   0.0909091  -0.0642825   0.0000000), wk =   0.0330579
        k(   18) = (   0.1818182   0.0642824   0.0000000), wk =   0.0330579
        k(   19) = (   0.1818182   0.1607060   0.0000000), wk =   0.0330579
        k(   20) = (   0.1818182   0.2571297   0.0000000), wk =   0.0330579
        k(   21) = (   0.1818182   0.3535533   0.0000000), wk =   0.0330579
        k(   22) = (   0.1818182   0.4499770   0.0000000), wk =   0.0330579
        k(   23) = (   0.1818182   0.5464007   0.0000000), wk =   0.0330579
[...]
     energy             new  =    -240.5758970175 Ry

     CASE: energy            _new < energy            _old

     new trust radius        =       0.0032814943 bohr
     new conv_thr            =            1.0E-12 Ry

ATOMIC_POSITIONS (angstrom)
Li               0.9916067309        1.4024122154       20.0202747342
Li               1.9832882700        2.8047934300       22.3394874535
Li               0.9916618661        1.4023623575       24.7905260223
Li               1.9832882800        2.8047934500       27.1094672370
Li               0.0000322010        4.2072046238       20.0204551211
Li               0.9916443500        5.6095863900       22.3395494945
Li              -0.0000272786        4.2071617540       24.7905945299
Li               0.9916443300        5.6095863500       27.1095843522
Li               3.9665444190        1.4023818462       20.0204551811
Li               4.9582206700        2.8047934200       22.3395129372
Li               3.9666038886        1.4024246860       24.7905945499
Li               4.9582206800        2.8047934400       27.1095719296
Li               2.9749698891        4.2071742546       20.0202747042
Li               3.9665767500        5.6095863800       22.3395083966
Li               2.9749147439        4.2072240825       24.7905259923
Li               3.9665767300        5.6095863300       27.1095614210

     Writing config-only to output data dir ./Li/Lithium.save/ :
     XML data file     NEW-OLD atomic charge density approx. for the potential

[...]

     Self-consistent Calculation

[...]

     Threshold (ethr) on eigenvalues was too large:
     Diagonalizing with lowered threshold

     Davidson diagonalization with overlap

[...]

     ethr =  1.12E-12,  avg # of iterations = 10.1

[...]

     add environment contribution to local potential

     total energy              =    -240.57590233 Ry
     estimated scf accuracy    <          1.5E-12 Ry

     total charge of GC-SCF    =       0.95692161 e
     the Fermi energy          =      -3.40405824 eV
                        (error :       0.00005824 eV)
     electrostatic embedding   =      -0.28380835 Ry
     cavitation energy         =       0.01235683 Ry
     electrolyte free energy   =      -0.00471740 Ry
     correction to one-el term =     -27.67802758 Ry

     iteration # 13     ecut=    80.00 Ry     beta= 0.20
     Davidson diagonalization with overlap

     c_bands:  1 eigenvalues not converged
     ethr =  1.00E-13,  avg # of iterations = 11.7

     negative rho (up, down):  2.540E-04 0.000E+00

     End of self-consistent calculation

[...]

          k = 0.4545 0.0643 0.0000 (128255 PWs)   bands (ev):

   -50.5133 -50.5132 -50.5115 -50.5114 -50.5050 -50.5049 -50.5044 -50.5043
   -49.8916 -49.8888 -49.8843 -49.8836 -49.8817 -49.8811 -49.8780 -49.8763
    -6.1599  -5.6234  -5.5477  -5.0277  -4.2857  -4.0396  -3.7902  -3.4361
    -3.0867  -2.6336  -2.5789  -2.1945  -2.1840  -2.1423  -2.1353  -1.7114
    -1.0066  -0.8149   0.1780   0.4017

     occupation numbers
     1.0000   1.0000   1.0000   1.0000   1.0000   1.0000   1.0000   1.0000
     1.0000   1.0000   1.0000   1.0000   1.0000   1.0000   1.0000   1.0000
     1.0000   1.0000   1.0000   1.0000   1.0000   1.0000   1.0030   0.5717
     0.0000   0.0000   0.0000   0.0000   0.0000   0.0000   0.0000   0.0000
     0.0000   0.0000   0.0000   0.0000

     the Fermi energy is    -3.4040 ev

!    total energy              =    -240.57590235 Ry
     total all-electron energy =      -240.576032 Ry
     estimated scf accuracy    <          5.6E-13 Ry

!    total charge of GC-SCF    =       0.95690842 e
     smearing contrib. (-TS)   =      -0.00010544 Ry
     internal energy E=F+TS    =    -240.57579691 Ry

     The total energy is F=E-TS. E is the sum of the following terms:
     one-electron contribution =   -2432.80219404 Ry
     hartree contribution      =    1189.04979066 Ry
     xc contribution           =     -57.07906127 Ry
     ewald contribution        =    1087.03841216 Ry
     one-center paw contrib.   =       1.41040045 Ry
      -> PAW hartree energy AE =       7.40992004 Ry
      -> PAW hartree energy PS =      -7.18758471 Ry
      -> PAW xc energy AE      =      -3.48398449 Ry
      -> PAW xc energy PS      =       3.34972534 Ry
      -> total E_H with PAW    =    1189.27212600 Ry
      -> total E_XC with PAW   =     -57.21332043 Ry
     pot.stat. contrib. (-muN) =      -0.23940833 Ry
     electrostatic embedding   =      -0.28379884 Ry
     cavitation energy         =       0.01235683 Ry
     electrolyte free energy   =      -0.00471730 Ry
     correction to one-el term =     -27.67757725 Ry

     WARNING: you are using the parabolic pbc correction;
              the potential shift above must be added to
              band and Fermi energies.

     convergence has been achieved in  13 iterations
     The dielectric solvent contribution to forces
     atom    1 type  1   force =     0.00000003   -0.00000010   -0.03059279
     atom    2 type  1   force =    -0.00000000   -0.00000000   -0.01377814
     atom    3 type  1   force =     0.00000005    0.00000006    0.01377342
     atom    4 type  1   force =    -0.00000000    0.00000001    0.03059063
     atom    5 type  1   force =    -0.00000000    0.00000010   -0.03059548
     atom    6 type  1   force =     0.00000000   -0.00000000   -0.01377757
     atom    7 type  1   force =     0.00000006    0.00000000    0.01377413
     atom    8 type  1   force =    -0.00000000   -0.00000001    0.03058897
     atom    9 type  1   force =    -0.00000000   -0.00000010   -0.03059547
     atom   10 type  1   force =     0.00000000   -0.00000000   -0.01377796
     atom   11 type  1   force =    -0.00000006   -0.00000000    0.01377412
     atom   12 type  1   force =    -0.00000000    0.00000001    0.03058917
     atom   13 type  1   force =    -0.00000003    0.00000010   -0.03059279
     atom   14 type  1   force =     0.00000000    0.00000000   -0.01377800
     atom   15 type  1   force =    -0.00000005   -0.00000006    0.01377343
     atom   16 type  1   force =    -0.00000000   -0.00000001    0.03058961

     Forces acting on atoms (cartesian axes, Ry/au):

     atom    1 type  1   force =     0.00000035   -0.00000076    0.00015028
     atom    2 type  1   force =     0.00000000    0.00000000    0.00006919
     atom    3 type  1   force =     0.00000002    0.00000036   -0.00007527
     atom    4 type  1   force =     0.00000000    0.00000000   -0.00014257
     atom    5 type  1   force =    -0.00000028    0.00000055    0.00014737
     atom    6 type  1   force =     0.00000000    0.00000000    0.00007277
     atom    7 type  1   force =     0.00000101    0.00000028   -0.00007710
     atom    8 type  1   force =     0.00000000    0.00000000   -0.00014380
     atom    9 type  1   force =     0.00000028   -0.00000055    0.00014737
     atom   10 type  1   force =     0.00000000    0.00000000    0.00007327
     atom   11 type  1   force =    -0.00000101   -0.00000028   -0.00007710
     atom   12 type  1   force =     0.00000000    0.00000000   -0.00014190
     atom   13 type  1   force =    -0.00000035    0.00000076    0.00015028
     atom   14 type  1   force =     0.00000000    0.00000000    0.00006717
     atom   15 type  1   force =    -0.00000002   -0.00000036   -0.00007527
     atom   16 type  1   force =     0.00000000    0.00000000   -0.00014471
     The non-local contrib.  to forces
     atom    1 type  1   force =    -0.00000083   -0.00000027   -0.08169669
     atom    2 type  1   force =     0.00000000    0.00000000    0.00133585
     atom    3 type  1   force =     0.00000188   -0.00000043   -0.00134163
     atom    4 type  1   force =     0.00000000    0.00000000    0.08168882
     atom    5 type  1   force =     0.00000027    0.00000061   -0.08168463
     atom    6 type  1   force =     0.00000000    0.00000000    0.00133265
     atom    7 type  1   force =    -0.00000014    0.00000043   -0.00134256
     atom    8 type  1   force =     0.00000000    0.00000000    0.08169698
     atom    9 type  1   force =    -0.00000027   -0.00000061   -0.08168463
     atom   10 type  1   force =     0.00000000    0.00000000    0.00133582
     atom   11 type  1   force =     0.00000014   -0.00000043   -0.00134256
     atom   12 type  1   force =     0.00000000    0.00000000    0.08169631
     atom   13 type  1   force =     0.00000083    0.00000027   -0.08169669
     atom   14 type  1   force =     0.00000000    0.00000000    0.00133201
     atom   15 type  1   force =    -0.00000188    0.00000043   -0.00134163
     atom   16 type  1   force =     0.00000000    0.00000000    0.08169520
     The ionic contribution  to forces
     atom    1 type  1   force =     0.00000288   -0.00001434   -9.03955248
     atom    2 type  1   force =    -0.00000006   -0.00000007   -3.02205892
     atom    3 type  1   force =     0.00000947    0.00000728    3.02187273
     atom    4 type  1   force =    -0.00000005   -0.00000011    9.03926006
     atom    5 type  1   force =    -0.00000390    0.00001098   -9.03921496
     atom    6 type  1   force =     0.00000007    0.00000008   -3.02187260
     atom    7 type  1   force =     0.00002020    0.00000710    3.02203326
     atom    8 type  1   force =     0.00000004    0.00000012    9.03948169
     atom    9 type  1   force =     0.00000387   -0.00001100   -9.03921475
     atom   10 type  1   force =    -0.00000002   -0.00000005   -3.02196456
     atom   11 type  1   force =    -0.00002025   -0.00000713    3.02203336
     atom   12 type  1   force =    -0.00000001   -0.00000011    9.03948237
     atom   13 type  1   force =    -0.00000291    0.00001433   -9.03955266
     atom   14 type  1   force =     0.00000011    0.00000009   -3.02203897
     atom   15 type  1   force =    -0.00000953   -0.00000731    3.02187262
     atom   16 type  1   force =     0.00000007    0.00000014    9.03943381
     The local contribution  to forces
     atom    1 type  1   force =     0.00005385    0.00000340    9.15199266
     atom    2 type  1   force =     0.00005791   -0.00002187    3.03457701
     atom    3 type  1   force =     0.00004445   -0.00001627   -3.03438732
     atom    4 type  1   force =     0.00005735   -0.00002303   -9.15168331
     atom    5 type  1   force =     0.00005891   -0.00002171    9.15164542
     atom    6 type  1   force =     0.00010286   -0.00001644    3.03439694
     atom    7 type  1   force =     0.00003671   -0.00001693   -3.03454803
     atom    8 type  1   force =     0.00010407   -0.00001409   -9.15191265
     atom    9 type  1   force =     0.00005230    0.00000064    9.15164178
     atom   10 type  1   force =     0.00005867   -0.00002129    3.03448661
     atom   11 type  1   force =     0.00007503   -0.00000241   -3.03454924
     atom   12 type  1   force =     0.00005811   -0.00002245   -9.15191096
     atom   13 type  1   force =     0.00005737   -0.00002447    9.15199447
     atom   14 type  1   force =     0.00010362   -0.00001586    3.03455875
     atom   15 type  1   force =     0.00006730   -0.00000308   -3.03438550
     atom   16 type  1   force =     0.00010483   -0.00001293   -9.15186459
     The core correction contribution to forces
     atom    1 type  1   force =     0.00000000    0.00000000    0.00000000
     atom    2 type  1   force =     0.00000000    0.00000000    0.00000000
     atom    3 type  1   force =     0.00000000    0.00000000    0.00000000
     atom    4 type  1   force =     0.00000000    0.00000000    0.00000000
     atom    5 type  1   force =     0.00000000    0.00000000    0.00000000
     atom    6 type  1   force =     0.00000000    0.00000000    0.00000000
     atom    7 type  1   force =     0.00000000    0.00000000    0.00000000
     atom    8 type  1   force =     0.00000000    0.00000000    0.00000000
     atom    9 type  1   force =     0.00000000    0.00000000    0.00000000
     atom   10 type  1   force =     0.00000000    0.00000000    0.00000000
     atom   11 type  1   force =     0.00000000    0.00000000    0.00000000
     atom   12 type  1   force =     0.00000000    0.00000000    0.00000000
     atom   13 type  1   force =     0.00000000    0.00000000    0.00000000
     atom   14 type  1   force =     0.00000000    0.00000000    0.00000000
     atom   15 type  1   force =     0.00000000    0.00000000    0.00000000
     atom   16 type  1   force =     0.00000000    0.00000000    0.00000000
     The Hubbard contrib.    to forces
     atom    1 type  1   force =     0.00000000    0.00000000    0.00000000
     atom    2 type  1   force =     0.00000000    0.00000000    0.00000000
     atom    3 type  1   force =     0.00000000    0.00000000    0.00000000
     atom    4 type  1   force =     0.00000000    0.00000000    0.00000000
     atom    5 type  1   force =     0.00000000    0.00000000    0.00000000
     atom    6 type  1   force =     0.00000000    0.00000000    0.00000000
     atom    7 type  1   force =     0.00000000    0.00000000    0.00000000
     atom    8 type  1   force =     0.00000000    0.00000000    0.00000000
     atom    9 type  1   force =     0.00000000    0.00000000    0.00000000
     atom   10 type  1   force =     0.00000000    0.00000000    0.00000000
     atom   11 type  1   force =     0.00000000    0.00000000    0.00000000
     atom   12 type  1   force =     0.00000000    0.00000000    0.00000000
     atom   13 type  1   force =     0.00000000    0.00000000    0.00000000
     atom   14 type  1   force =     0.00000000    0.00000000    0.00000000
     atom   15 type  1   force =     0.00000000    0.00000000    0.00000000
     atom   16 type  1   force =     0.00000000    0.00000000    0.00000000
     The SCF correction term to forces
     atom    1 type  1   force =     0.00000000    0.00000002   -0.00000123
     atom    2 type  1   force =    -0.00000000   -0.00000000   -0.00000660
     atom    3 type  1   force =     0.00000002    0.00000002    0.00000668
     atom    4 type  1   force =     0.00000000   -0.00000000    0.00000124
     atom    5 type  1   force =     0.00000003    0.00000002   -0.00000126
     atom    6 type  1   force =    -0.00000000   -0.00000000   -0.00000665
     atom    7 type  1   force =     0.00000003   -0.00000001    0.00000668
     atom    8 type  1   force =    -0.00000000   -0.00000000    0.00000122
     atom    9 type  1   force =    -0.00000003   -0.00000002   -0.00000126
     atom   10 type  1   force =    -0.00000000   -0.00000000   -0.00000664
     atom   11 type  1   force =    -0.00000003    0.00000001    0.00000668
     atom   12 type  1   force =    -0.00000000    0.00000000    0.00000122
     atom   13 type  1   force =    -0.00000000   -0.00000002   -0.00000123
     atom   14 type  1   force =     0.00000000    0.00000000   -0.00000662
     atom   15 type  1   force =    -0.00000002   -0.00000002    0.00000668
     atom   16 type  1   force =     0.00000000    0.00000000    0.00000126

     Total force =     0.000462     Total SCF correction =     0.000019
     Energy error            =      5.3E-06 Ry
     Gradient error          =      1.5E-04 Ry/Bohr

     bfgs converged in   8 scf cycles and   7 bfgs steps
     (criteria: energy <  1.0E-05 Ry, force <  3.9E-04 Ry/Bohr)

     End of BFGS Geometry Optimization

     Final energy             =    -240.5759023525 Ry

     File ./Li/Lithium.bfgs deleted, as requested
Begin final coordinates

ATOMIC_POSITIONS (angstrom)
Li               0.9916067309        1.4024122154       20.0202747342
Li               1.9832882700        2.8047934300       22.3394874535
Li               0.9916618661        1.4023623575       24.7905260223
Li               1.9832882800        2.8047934500       27.1094672370
Li               0.0000322010        4.2072046238       20.0204551211
Li               0.9916443500        5.6095863900       22.3395494945
Li              -0.0000272786        4.2071617540       24.7905945299
Li               0.9916443300        5.6095863500       27.1095843522
Li               3.9665444190        1.4023818462       20.0204551811
Li               4.9582206700        2.8047934200       22.3395129372
Li               3.9666038886        1.4024246860       24.7905945499
Li               4.9582206800        2.8047934400       27.1095719296
Li               2.9749698891        4.2071742546       20.0202747042
Li               3.9665767500        5.6095863800       22.3395083966
Li               2.9749147439        4.2072240825       24.7905259923
Li               3.9665767300        5.6095863300       27.1095614210
End final coordinates

     Writing all to output data dir ./Li/Lithium.save/ :
     XML data file

     General routines

     Parallel routines

     PAW routines

     Environ routines

   This run was terminated on:  20: 9: 5   1Jan2025

   JOB DONE.