     Program PWSCF v.7.4 starts on 20Jan2025 at  4:23:43

     Reading input from espresso.pwi
Warning: card &CELL ignored
Warning: card    PRESS_CONV_THR   = 0.1 ignored
Warning: card    CELL_DOFREE      = 'ALL' ignored
Warning: card / ignored
Warning: card &FCP ignored
Warning: card / ignored
Warning: card &RISM ignored
Warning: card / ignored

     Current dimensions of program PWSCF are:
     Max number of different atomic species (ntypx) = 10
     Max number of k-points (npk) =  40000
     Max angular momentum in pseudopotentials (lmaxx) =  4

     IMPORTANT: XC functional enforced from input :
     Exchange-correlation= PBE
                           (   1   4   3   4   0   0   0)
     Any further DFT definition will be discarded
     Please, verify this is what you really want

     Reading input from environ.in:
     * using ionic solvent mode
     * setting boundary derivatives method to SSCS default
     * setting electrolyte-boundary derivatives method to SSCS default

Environ Warning (1001): card EOF ignored

     Found identity + ( -0.5000  0.0000 -0.0000) symmetry
     This is a supercell, fractional translations are disabled

     K-points division:     npool     =       2
     R & G space division:  proc/nbgrp/npool/nimage =     192
     Subspace diagonalization in iterative solution of the eigenvalue problem:
     a serial algorithm will be used

     Using Slab Decomposition

     bravais-lattice index     =            4
     lattice parameter (alat)  =      18.3607  a.u.
     unit-cell volume          =   28251.3786 (a.u.)^3
     number of atoms/cell      =           48
     number of atomic types    =            1
     number of electrons       =       144.00
     number of Kohn-Sham states=          108
     kinetic-energy cutoff     =      80.0000  Ry
     charge density cutoff     =     800.0000  Ry
     scf convergence threshold =      1.0E-16
     mixing beta               =       0.2000
     number of iterations used =            8  local-TF  mixing
     Exchange-correlation= PBE
                           (   1   4   3   4   0   0   0)

                                  Environ Setup Summary

          O. Andreussi, I. Dabo and N. Marzari, J. Chem. Phys. 136, 064102 (2012)
          F. Nattino, M. Truscott, N. Marzari, and O. Andreussi, J. Chem. Phys. 150, 041722 (2019)

     in publications or presentations arising from this work.

     Parameters

     compensation onset threshold      =               0.1000E+00
     static permittivity               =                    89.90
     surface tension in input (dyn/cm) =                    37.30
     surface tension in internal units =               0.4792E-04

     Solvent Boundary

     solvent mode                      =                    ionic
     derivatives method                =                   lowmem
     electrolyte derivatives method    =                   lowmem
     numerical core for derivatives    =                      fft
     switching function adopted        =                     SCCS
     density limit for vacuum region   =               0.5000E-02
     density limit for bulk solvent    =               0.1000E-03
     soft-sphere radius mode           =                    bondi
     soft-sphere softness              =                     0.50
     alpha                             =                     1.32

     Electrostatic Setup

     electrostatic problem to solve    =                    modpb
     numerical solver adopted          =                   newton
     type of auxiliary density adopted =                     none
     numerical core for poisson        =                      fft
     adopting a nested solver scheme
     inner solver                      =                       cg
     inner core                        =                      fft
     type of pbc corrections           =                parabolic
     numerical core for corrections    =                      1da

     >>>>> Grand-Canonical SCF is activated <<<<<
     Initial Total Charge  =     0.000000 e
     Target Fermi Energy   =    -4.904000 eV
     Thr. of Fermi Energy  =     0.001000 eV
     Wave-shift of Kerker  =     0.400000 bohr^-1
     Wave-shift of Hartree =     1.500000 bohr^-1
     Mixing Rate of Fermi  =     0.050000

     celldm(1)=  18.360747  celldm(2)=   0.000000  celldm(3)=   5.270332
     celldm(4)=   0.000000  celldm(5)=   0.000000  celldm(6)=   0.000000

     crystal axes: (cart. coord. in units of alat)
               a(1) = (   1.000000   0.000000   0.000000 )
               a(2) = (  -0.500000   0.866025   0.000000 )
               a(3) = (   0.000000   0.000000   5.270332 )

     reciprocal axes: (cart. coord. in units 2 pi/alat)
               b(1) = (  1.000000  0.577350 -0.000000 )
               b(2) = (  0.000000  1.154701  0.000000 )
               b(3) = (  0.000000 -0.000000  0.189741 )

     PseudoPot. # 1 for Li read from file:
     /work/e89/e89/ba3g18/Repos/Pseudopotentials/Pslibrary/Li.pbe-sl-kjpaw_psl.1.0.0.UPF
     MD5 check sum: 3f4d2cafebb47c6c3aa8ed472e6f074d
     Pseudo is Projector augmented-wave, Zval =  3.0
     Generated using 'atomic' code by A. Dal Corso  v.7.4
     Shape of augmentation charge: PSQ
     Using radial grid of 1017 points,  4 beta functions with:
                l(1) =   0
                l(2) =   0
                l(3) =   1
                l(4) =   1
     Q(r) pseudized with 0 coefficients

     atomic species   valence    mass     pseudopotential
     Li                3.00     6.94000     Li( 1.00)

      2 Sym. Ops. (no inversion) found

                                    s                        frac. trans.

      isym =  1     identity

 cryst.   s( 1) = (     1          0          0      )
                  (     0          1          0      )
                  (     0          0          1      )

 cart.    s( 1) = (  1.0000000  0.0000000  0.0000000 )
                  (  0.0000000  1.0000000  0.0000000 )
                  (  0.0000000  0.0000000  1.0000000 )

      isym =  2     inv. 180 deg rotation - cart. axis [1,0,0]

 cryst.   s( 2) = (    -1          0          0      )
                  (     1          1          0      )
                  (     0          0          1      )

 cart.    s( 2) = ( -1.0000000  0.0000000  0.0000000 )
                  (  0.0000000  1.0000000  0.0000000 )
                  (  0.0000000  0.0000000  1.0000000 )

     point group C_s (m)
     there are  2 classes
     the character table:

       E     s
A'     1.00  1.00
A''    1.00 -1.00

     the symmetry operations in each class and the name of the first element:

     E        1
          identity
     s        2
          inv. 180 deg rotation - cart. axis [1,0,0]

   Cartesian axes

     site n.     atom                  positions (alat units)
         1        Li     tau(   1) = (  -0.0000000  -0.0000010   2.5919067  )
         2        Li     tau(   2) = (   0.2500014   0.1443438   2.1844341  )
         3        Li     tau(   3) = (   0.5000000   0.2886748   2.3624601  )
         4        Li     tau(   4) = (   0.0000000  -0.0000002   2.2853998  )
         5        Li     tau(   5) = (   0.2500004   0.1443393   2.4820293  )
         6        Li     tau(   6) = (   0.5000000   0.2886709   1.9738684  )
         7        Li     tau(   7) = (   0.0000000  -0.0000066   3.2965049  )
         8        Li     tau(   8) = (   0.2499999   0.1443369   2.7883036  )
         9        Li     tau(   9) = (   0.5000000   0.2886723   2.9849168  )
        10        Li     tau(  10) = (  -0.0000000  -0.0000018   2.9078665  )
        11        Li     tau(  11) = (   0.2499995   0.1443354   3.0858984  )
        12        Li     tau(  12) = (   0.5000000   0.2886746   2.6783964  )
        13        Li     tau(  13) = (   0.2500005   0.4330135   2.5919103  )
        14        Li     tau(  14) = (   0.5000000   0.5773470   2.1844261  )
        15        Li     tau(  15) = (   0.7499997   0.7216918   2.3624581  )
        16        Li     tau(  16) = (   0.2499992   0.4330172   2.2854110  )
        17        Li     tau(  17) = (   0.5000000   0.5773498   2.4820245  )
        18        Li     tau(  18) = (   0.7499997   0.7216972   1.9738909  )
        19        Li     tau(  19) = (   0.2499972   0.4330148   3.2964980  )
        20        Li     tau(  20) = (   0.5000000   0.5773492   2.7882982  )
        21        Li     tau(  21) = (   0.7499997   0.7216868   2.9849175  )
        22        Li     tau(  22) = (   0.2499996   0.4330115   2.9078676  )
        23        Li     tau(  23) = (   0.5000000   0.5773477   3.0858939  )
        24        Li     tau(  24) = (   0.7499991   0.7216888   2.6783967  )
        25        Li     tau(  25) = (   0.5000000   0.0000001   2.5919066  )
        26        Li     tau(  26) = (   0.7499986   0.1443438   2.1844341  )
        27        Li     tau(  27) = (   1.0000000   0.2886740   2.3624602  )
        28        Li     tau(  28) = (   0.5000000  -0.0000011   2.2854029  )
        29        Li     tau(  29) = (   0.7499995   0.1443393   2.4820293  )
        30        Li     tau(  30) = (   1.0000000   0.2886719   1.9738795  )
        31        Li     tau(  31) = (   0.5000000  -0.0000081   3.2964988  )
        32        Li     tau(  32) = (   0.7500001   0.1443369   2.7883036  )
        33        Li     tau(  33) = (   1.0000000   0.2886730   2.9849171  )
        34        Li     tau(  34) = (   0.5000000  -0.0000031   2.9078663  )
        35        Li     tau(  35) = (   0.7500005   0.1443354   3.0858984  )
        36        Li     tau(  36) = (   1.0000000   0.2886727   2.6783985  )
        37        Li     tau(  37) = (   0.7499995   0.4330135   2.5919103  )
        38        Li     tau(  38) = (   1.0000000   0.5773494   2.1844260  )
        39        Li     tau(  39) = (   1.2500003   0.7216918   2.3624581  )
        40        Li     tau(  40) = (   0.7500008   0.4330172   2.2854110  )
        41        Li     tau(  41) = (   1.0000000   0.5773509   2.4820211  )
        42        Li     tau(  42) = (   1.2500003   0.7216972   1.9738909  )
        43        Li     tau(  43) = (   0.7500028   0.4330148   3.2964980  )
        44        Li     tau(  44) = (   1.0000000   0.5773486   2.7882989  )
        45        Li     tau(  45) = (   1.2500003   0.7216868   2.9849175  )
        46        Li     tau(  46) = (   0.7500004   0.4330115   2.9078676  )
        47        Li     tau(  47) = (   1.0000000   0.5773486   3.0858908  )
        48        Li     tau(  48) = (   1.2500009   0.7216888   2.6783967  )

   Crystallographic axes

     site n.     atom                  positions (cryst. coord.)
         1        Li     tau(   1) = ( -0.0000006 -0.0000011  0.4917919  )
         2        Li     tau(   2) = (  0.3333383  0.1666738  0.4144775  )
         3        Li     tau(   3) = (  0.6666665  0.3333329  0.4482564  )
         4        Li     tau(   4) = ( -0.0000001 -0.0000002  0.4336349  )
         5        Li     tau(   5) = (  0.3333348  0.1666687  0.4709436  )
         6        Li     tau(   6) = (  0.6666642  0.3333285  0.3745245  )
         7        Li     tau(   7) = ( -0.0000038 -0.0000076  0.6254834  )
[...]
     atom   27 type  1   force =     0.00000005    0.00000138   -6.30652516
     atom   28 type  1   force =    -0.00000001    0.00002024   -8.12693461
     atom   29 type  1   force =     0.00001030   -0.00000535   -3.48337587
     atom   30 type  1   force =     0.00000004    0.00002299  -12.17735874
     atom   31 type  1   force =     0.00000000    0.00002615   12.17714668
     atom   32 type  1   force =    -0.00000958   -0.00000204    3.48374726
     atom   33 type  1   force =     0.00000003   -0.00001154    8.12683299
     atom   34 type  1   force =    -0.00000000    0.00001690    6.30661452
     atom   35 type  1   force =    -0.00000386    0.00000834   10.12427639
     atom   36 type  1   force =     0.00000005    0.00001590    0.98484717
     atom   37 type  1   force =     0.00002081    0.00000798   -0.98478360
     atom   38 type  1   force =     0.00000004   -0.00003642  -10.12437168
     atom   39 type  1   force =     0.00001288   -0.00000594   -6.30654991
     atom   40 type  1   force =    -0.00000885   -0.00001242   -8.12679426
     atom   41 type  1   force =     0.00000003   -0.00000439   -3.48352405
     atom   42 type  1   force =     0.00000242   -0.00002644  -12.17734656
     atom   43 type  1   force =    -0.00001225   -0.00001811   12.17714404
     atom   44 type  1   force =     0.00000003    0.00000617    3.48360323
     atom   45 type  1   force =     0.00001027    0.00000313    8.12682050
     atom   46 type  1   force =    -0.00001406   -0.00000243    6.30665296
     atom   47 type  1   force =     0.00000002   -0.00000595   10.12414257
     atom   48 type  1   force =    -0.00001631   -0.00000492    0.98482110
     The local contribution  to forces
     atom    1 type  1   force =     0.00000058   -0.00000224    0.99556525
     atom    2 type  1   force =    -0.00000640   -0.00004778   10.30838746
     atom    3 type  1   force =     0.00000196   -0.00000869    6.37954192
     atom    4 type  1   force =    -0.00000058   -0.00000284    8.26182535
     atom    5 type  1   force =     0.00001235    0.00000496    3.52447904
     atom    6 type  1   force =    -0.00000328   -0.00002730   12.13674844
     atom    7 type  1   force =     0.00000000   -0.00001328  -12.13650772
     atom    8 type  1   force =    -0.00000778    0.00000182   -3.52494035
     atom    9 type  1   force =     0.00000196    0.00000144   -8.26176532
     atom   10 type  1   force =     0.00000058    0.00000282   -6.37971593
     atom   11 type  1   force =    -0.00000261   -0.00001049  -10.30853701
     atom   12 type  1   force =     0.00000138    0.00000771   -0.99560116
     atom   13 type  1   force =     0.00002326   -0.00000801    0.99545882
     atom   14 type  1   force =     0.00000313    0.00004809   10.30852896
     atom   15 type  1   force =     0.00001704    0.00000692    6.37952886
     atom   16 type  1   force =    -0.00000760    0.00001337    8.26163780
     atom   17 type  1   force =     0.00000196   -0.00001442    3.52460325
     atom   18 type  1   force =     0.00000607    0.00003073   12.13676927
     atom   19 type  1   force =    -0.00001028    0.00001910  -12.13650937
     atom   20 type  1   force =     0.00000255    0.00000204   -3.52483257
     atom   21 type  1   force =     0.00001489   -0.00000363   -8.26175614
     atom   22 type  1   force =    -0.00001286    0.00000327   -6.37973083
     atom   23 type  1   force =     0.00000255    0.00001259  -10.30844432
     atom   24 type  1   force =    -0.00001302    0.00000543   -0.99558876
     atom   25 type  1   force =     0.00000254    0.00001728    0.99553831
     atom   26 type  1   force =     0.00001034   -0.00004661   10.30837846
     atom   27 type  1   force =     0.00000392   -0.00000180    6.37950517
     atom   28 type  1   force =     0.00000312   -0.00002162    8.26177214
     atom   29 type  1   force =    -0.00000842    0.00000496    3.52447421
     atom   30 type  1   force =     0.00000862   -0.00002430   12.13675411
     atom   31 type  1   force =     0.00000256   -0.00002709  -12.13651042
     atom   32 type  1   force =     0.00001171    0.00000182   -3.52494337
     atom   33 type  1   force =     0.00000334    0.00001300   -8.26177246
     atom   34 type  1   force =     0.00000254   -0.00001811   -6.37969183
     atom   35 type  1   force =     0.00000655   -0.00000991  -10.30853941
     atom   36 type  1   force =     0.00000392   -0.00001592   -0.99561499
     atom   37 type  1   force =    -0.00001876   -0.00000859    0.99545882
     atom   38 type  1   force =     0.00000277    0.00004255   10.30854178
     atom   39 type  1   force =    -0.00000978    0.00000634    6.37952825
     atom   40 type  1   force =     0.00001210    0.00001221    8.26163719
     atom   41 type  1   force =     0.00000335    0.00000466    3.52462677
     atom   42 type  1   force =     0.00000123    0.00002430   12.13676868
     atom   43 type  1   force =     0.00001481    0.00001852  -12.13650878
     atom   44 type  1   force =     0.00000335   -0.00000581   -3.52479493
     atom   45 type  1   force =    -0.00000763   -0.00000363   -8.26175614
     atom   46 type  1   force =     0.00001678    0.00000327   -6.37973022
     atom   47 type  1   force =     0.00000335    0.00000786  -10.30839666
     atom   48 type  1   force =     0.00001971    0.00000485   -0.99558876
     The core correction contribution to forces
     atom    1 type  1   force =     0.00000000    0.00000000    0.00000000
     atom    2 type  1   force =     0.00000000    0.00000000    0.00000000
     atom    3 type  1   force =     0.00000000    0.00000000    0.00000000
     atom    4 type  1   force =     0.00000000    0.00000000    0.00000000
     atom    5 type  1   force =     0.00000000    0.00000000    0.00000000
     atom    6 type  1   force =     0.00000000    0.00000000    0.00000000
     atom    7 type  1   force =     0.00000000    0.00000000    0.00000000
     atom    8 type  1   force =     0.00000000    0.00000000    0.00000000
     atom    9 type  1   force =     0.00000000    0.00000000    0.00000000
     atom   10 type  1   force =     0.00000000    0.00000000    0.00000000
     atom   11 type  1   force =     0.00000000    0.00000000    0.00000000
     atom   12 type  1   force =     0.00000000    0.00000000    0.00000000
     atom   13 type  1   force =     0.00000000    0.00000000    0.00000000
     atom   14 type  1   force =     0.00000000    0.00000000    0.00000000
     atom   15 type  1   force =     0.00000000    0.00000000    0.00000000
     atom   16 type  1   force =     0.00000000    0.00000000    0.00000000
     atom   17 type  1   force =     0.00000000    0.00000000    0.00000000
     atom   18 type  1   force =     0.00000000    0.00000000    0.00000000
     atom   19 type  1   force =     0.00000000    0.00000000    0.00000000
     atom   20 type  1   force =     0.00000000    0.00000000    0.00000000
     atom   21 type  1   force =     0.00000000    0.00000000    0.00000000
     atom   22 type  1   force =     0.00000000    0.00000000    0.00000000
     atom   23 type  1   force =     0.00000000    0.00000000    0.00000000
     atom   24 type  1   force =     0.00000000    0.00000000    0.00000000
     atom   25 type  1   force =     0.00000000    0.00000000    0.00000000
     atom   26 type  1   force =     0.00000000    0.00000000    0.00000000
     atom   27 type  1   force =     0.00000000    0.00000000    0.00000000
     atom   28 type  1   force =     0.00000000    0.00000000    0.00000000
     atom   29 type  1   force =     0.00000000    0.00000000    0.00000000
     atom   30 type  1   force =     0.00000000    0.00000000    0.00000000
     atom   31 type  1   force =     0.00000000    0.00000000    0.00000000
     atom   32 type  1   force =     0.00000000    0.00000000    0.00000000
     atom   33 type  1   force =     0.00000000    0.00000000    0.00000000
     atom   34 type  1   force =     0.00000000    0.00000000    0.00000000
     atom   35 type  1   force =     0.00000000    0.00000000    0.00000000
     atom   36 type  1   force =     0.00000000    0.00000000    0.00000000
     atom   37 type  1   force =     0.00000000    0.00000000    0.00000000
     atom   38 type  1   force =     0.00000000    0.00000000    0.00000000
     atom   39 type  1   force =     0.00000000    0.00000000    0.00000000
     atom   40 type  1   force =     0.00000000    0.00000000    0.00000000
     atom   41 type  1   force =     0.00000000    0.00000000    0.00000000
     atom   42 type  1   force =     0.00000000    0.00000000    0.00000000
     atom   43 type  1   force =     0.00000000    0.00000000    0.00000000
     atom   44 type  1   force =     0.00000000    0.00000000    0.00000000
     atom   45 type  1   force =     0.00000000    0.00000000    0.00000000
     atom   46 type  1   force =     0.00000000    0.00000000    0.00000000
     atom   47 type  1   force =     0.00000000    0.00000000    0.00000000
     atom   48 type  1   force =     0.00000000    0.00000000    0.00000000
     The Hubbard contrib.    to forces
     atom    1 type  1   force =     0.00000000    0.00000000    0.00000000
     atom    2 type  1   force =     0.00000000    0.00000000    0.00000000
     atom    3 type  1   force =     0.00000000    0.00000000    0.00000000
     atom    4 type  1   force =     0.00000000    0.00000000    0.00000000
     atom    5 type  1   force =     0.00000000    0.00000000    0.00000000
     atom    6 type  1   force =     0.00000000    0.00000000    0.00000000
     atom    7 type  1   force =     0.00000000    0.00000000    0.00000000
     atom    8 type  1   force =     0.00000000    0.00000000    0.00000000
     atom    9 type  1   force =     0.00000000    0.00000000    0.00000000
     atom   10 type  1   force =     0.00000000    0.00000000    0.00000000
     atom   11 type  1   force =     0.00000000    0.00000000    0.00000000
     atom   12 type  1   force =     0.00000000    0.00000000    0.00000000
     atom   13 type  1   force =     0.00000000    0.00000000    0.00000000
     atom   14 type  1   force =     0.00000000    0.00000000    0.00000000
     atom   15 type  1   force =     0.00000000    0.00000000    0.00000000
     atom   16 type  1   force =     0.00000000    0.00000000    0.00000000
     atom   17 type  1   force =     0.00000000    0.00000000    0.00000000
     atom   18 type  1   force =     0.00000000    0.00000000    0.00000000
     atom   19 type  1   force =     0.00000000    0.00000000    0.00000000
     atom   20 type  1   force =     0.00000000    0.00000000    0.00000000
     atom   21 type  1   force =     0.00000000    0.00000000    0.00000000
     atom   22 type  1   force =     0.00000000    0.00000000    0.00000000
     atom   23 type  1   force =     0.00000000    0.00000000    0.00000000
     atom   24 type  1   force =     0.00000000    0.00000000    0.00000000
     atom   25 type  1   force =     0.00000000    0.00000000    0.00000000
     atom   26 type  1   force =     0.00000000    0.00000000    0.00000000
     atom   27 type  1   force =     0.00000000    0.00000000    0.00000000
     atom   28 type  1   force =     0.00000000    0.00000000    0.00000000
     atom   29 type  1   force =     0.00000000    0.00000000    0.00000000
     atom   30 type  1   force =     0.00000000    0.00000000    0.00000000
     atom   31 type  1   force =     0.00000000    0.00000000    0.00000000
     atom   32 type  1   force =     0.00000000    0.00000000    0.00000000
     atom   33 type  1   force =     0.00000000    0.00000000    0.00000000
     atom   34 type  1   force =     0.00000000    0.00000000    0.00000000
     atom   35 type  1   force =     0.00000000    0.00000000    0.00000000
     atom   36 type  1   force =     0.00000000    0.00000000    0.00000000
     atom   37 type  1   force =     0.00000000    0.00000000    0.00000000
     atom   38 type  1   force =     0.00000000    0.00000000    0.00000000
     atom   39 type  1   force =     0.00000000    0.00000000    0.00000000
     atom   40 type  1   force =     0.00000000    0.00000000    0.00000000
     atom   41 type  1   force =     0.00000000    0.00000000    0.00000000
     atom   42 type  1   force =     0.00000000    0.00000000    0.00000000
     atom   43 type  1   force =     0.00000000    0.00000000    0.00000000
     atom   44 type  1   force =     0.00000000    0.00000000    0.00000000
     atom   45 type  1   force =     0.00000000    0.00000000    0.00000000
     atom   46 type  1   force =     0.00000000    0.00000000    0.00000000
     atom   47 type  1   force =     0.00000000    0.00000000    0.00000000
     atom   48 type  1   force =     0.00000000    0.00000000    0.00000000
     The SCF correction term to forces
     atom    1 type  1   force =     0.00000000    0.00000000    0.00000000
     atom    2 type  1   force =    -0.00000000    0.00000000    0.00000000
     atom    3 type  1   force =     0.00000000   -0.00000000    0.00000000
     atom    4 type  1   force =     0.00000000    0.00000000    0.00000000
     atom    5 type  1   force =    -0.00000000    0.00000000    0.00000000
     atom    6 type  1   force =     0.00000000   -0.00000000   -0.00000000
     atom    7 type  1   force =    -0.00000000    0.00000000    0.00000000
     atom    8 type  1   force =    -0.00000000    0.00000000   -0.00000000
     atom    9 type  1   force =     0.00000000   -0.00000000    0.00000000
     atom   10 type  1   force =    -0.00000000    0.00000000   -0.00000000
     atom   11 type  1   force =    -0.00000000    0.00000000   -0.00000000
     atom   12 type  1   force =    -0.00000000   -0.00000000    0.00000000
     atom   13 type  1   force =    -0.00000000   -0.00000000    0.00000000
     atom   14 type  1   force =    -0.00000000    0.00000000   -0.00000000
     atom   15 type  1   force =    -0.00000000    0.00000000    0.00000000
     atom   16 type  1   force =    -0.00000000   -0.00000000    0.00000000
     atom   17 type  1   force =    -0.00000000    0.00000000    0.00000000
     atom   18 type  1   force =    -0.00000000    0.00000000   -0.00000000
     atom   19 type  1   force =    -0.00000000   -0.00000000    0.00000000
     atom   20 type  1   force =     0.00000000    0.00000000   -0.00000000
     atom   21 type  1   force =    -0.00000000    0.00000000    0.00000000
     atom   22 type  1   force =    -0.00000000   -0.00000000    0.00000000
     atom   23 type  1   force =     0.00000000    0.00000000    0.00000000
     atom   24 type  1   force =    -0.00000000    0.00000000    0.00000000
     atom   25 type  1   force =    -0.00000000    0.00000000    0.00000000
     atom   26 type  1   force =     0.00000000    0.00000000    0.00000000
     atom   27 type  1   force =     0.00000000   -0.00000000    0.00000000
     atom   28 type  1   force =    -0.00000000    0.00000000    0.00000000
     atom   29 type  1   force =     0.00000000    0.00000000    0.00000000
     atom   30 type  1   force =     0.00000000   -0.00000000   -0.00000000
     atom   31 type  1   force =     0.00000000    0.00000000    0.00000000
     atom   32 type  1   force =     0.00000000    0.00000000   -0.00000000
     atom   33 type  1   force =     0.00000000   -0.00000000   -0.00000000
     atom   34 type  1   force =     0.00000000    0.00000000    0.00000000
     atom   35 type  1   force =     0.00000000    0.00000000   -0.00000000
     atom   36 type  1   force =    -0.00000000   -0.00000000   -0.00000000
     atom   37 type  1   force =     0.00000000   -0.00000000    0.00000000
     atom   38 type  1   force =    -0.00000000   -0.00000000    0.00000000
     atom   39 type  1   force =     0.00000000    0.00000000    0.00000000
     atom   40 type  1   force =     0.00000000   -0.00000000    0.00000000
     atom   41 type  1   force =     0.00000000   -0.00000000    0.00000000
     atom   42 type  1   force =     0.00000000    0.00000000   -0.00000000
     atom   43 type  1   force =     0.00000000   -0.00000000    0.00000000
     atom   44 type  1   force =    -0.00000000   -0.00000000   -0.00000000
     atom   45 type  1   force =     0.00000000    0.00000000    0.00000000
     atom   46 type  1   force =     0.00000000   -0.00000000    0.00000000
     atom   47 type  1   force =    -0.00000000   -0.00000000    0.00000000
     atom   48 type  1   force =     0.00000000    0.00000000    0.00000000

     Total force =     0.001963     Total SCF correction =     0.000000

     Writing all to output data dir ./Li/Lithium.save/ :
     XML data file

     General routines

     Parallel routines

     PAW routines

     Environ routines

   This run was terminated on:   5:36: 8  20Jan2025

   JOB DONE.