     Program PWSCF v.7.4 starts on 23Jan2025 at  0:35:55

     Reading input from espresso.pwi
Warning: card &CELL ignored
Warning: card    PRESS_CONV_THR   = 0.1 ignored
Warning: card    CELL_DOFREE      = 'ALL' ignored
Warning: card / ignored
Warning: card &FCP ignored
Warning: card / ignored
Warning: card &RISM ignored
Warning: card / ignored

     Current dimensions of program PWSCF are:
     Max number of different atomic species (ntypx) = 10
     Max number of k-points (npk) =  40000
     Max angular momentum in pseudopotentials (lmaxx) =  4

     IMPORTANT: XC functional enforced from input :
     Exchange-correlation= PBE
                           (   1   4   3   4   0   0   0)
     Any further DFT definition will be discarded
     Please, verify this is what you really want

     K-points division:     npool     =       3
     R & G space division:  proc/nbgrp/npool/nimage =     128
     Subspace diagonalization in iterative solution of the eigenvalue problem:
     one sub-group per band group will be used

     Using Slab Decomposition

     bravais-lattice index     =            0
     lattice parameter (alat)  =      18.3607  a.u.
     unit-cell volume          =   18601.3644 (a.u.)^3
     number of atoms/cell      =           68
     number of atomic types    =            1
     number of electrons       =       204.00
     number of Kohn-Sham states=          153
     kinetic-energy cutoff     =      80.0000  Ry
     charge density cutoff     =     800.0000  Ry
     scf convergence threshold =      1.0E-06
     mixing beta               =       0.2000
     number of iterations used =            8  local-TF  mixing
     energy convergence thresh.=      1.0E-05
     force convergence thresh. =      3.9E-04
     Exchange-correlation= PBE
                           (   1   4   3   4   0   0   0)
     nstep                     =           50

     celldm(1)=  18.360747  celldm(2)=   0.000000  celldm(3)=   0.000000
     celldm(4)=   0.000000  celldm(5)=   0.000000  celldm(6)=   0.000000

     crystal axes: (cart. coord. in units of alat)
               a(1) = (   1.000000   0.000000   0.000000 )
               a(2) = (  -0.250000   1.030776   0.000000 )
               a(3) = (   0.000000   0.000000   2.915476 )

     reciprocal axes: (cart. coord. in units 2 pi/alat)
               b(1) = (  1.000000  0.242536  0.000000 )
               b(2) = (  0.000000  0.970143  0.000000 )
               b(3) = (  0.000000  0.000000  0.342997 )

     PseudoPot. # 1 for Li read from file:
     /iridisfs/home/ba3g18/Repos/Pseudopotentials/pslibrary.1.0.0/pbe/PSEUDOPOTENTIALS/Li.pbe-sl-kjpaw_psl.1.0.0.UPF
     MD5 check sum: 3f4d2cafebb47c6c3aa8ed472e6f074d
     Pseudo is Projector augmented-wave, Zval =  3.0
     Generated using 'atomic' code by A. Dal Corso  v.7.4
     Shape of augmentation charge: PSQ
     Using radial grid of 1017 points,  4 beta functions with:
                l(1) =   0
                l(2) =   0
                l(3) =   1
                l(4) =   1
     Q(r) pseudized with 0 coefficients

     atomic species   valence    mass     pseudopotential
     Li                3.00     6.94000     Li( 1.00)

     No symmetry found

   Cartesian axes

     site n.     atom                  positions (alat units)
         1        Li     tau(   1) = (   0.0006166   0.0241195   0.7619521  )
         2        Li     tau(   2) = (  -0.0004626   0.6136174   2.1194366  )
         3        Li     tau(   3) = (   0.2493266   0.7948953   1.9634307  )
         4        Li     tau(   4) = (   0.2494009   0.2005357   1.9947651  )
         5        Li     tau(   5) = (  -0.0004227   0.3729885   1.8657399  )
         6        Li     tau(   6) = (   0.2495315   0.5543551   1.6964907  )
         7        Li     tau(   7) = (   0.2503128   0.9052246   1.3514026  )
         8        Li     tau(   8) = (  -0.0004641   0.9767100   1.7896951  )
         9        Li     tau(   9) = (  -0.0000337   0.1248663   1.6081427  )
        10        Li     tau(  10) = (   0.2498495   0.3050762   1.4232923  )
        11        Li     tau(  11) = (   0.0002790   0.4798240   1.2599588  )
        12        Li     tau(  12) = (   0.2505934   0.6545390   1.0845517  )
        13        Li     tau(  13) = (  -0.0001064   0.7290703   1.5253703  )
        14        Li     tau(  14) = (   0.2502007   0.0494896   1.2005414  )
        15        Li     tau(  15) = (   0.0005691   0.2377991   1.0067662  )
        16        Li     tau(  16) = (   0.2507667   0.3880086   0.8238510  )
        17        Li     tau(  17) = (   0.0004528   0.8452042   0.9206525  )
        18        Li     tau(  18) = (  -0.0005712   0.0653705   1.9087097  )
        19        Li     tau(  19) = (  -0.0005933   0.6794067   1.8309247  )
        20        Li     tau(  20) = (   0.2497212   0.8541218   1.6555173  )
        21        Li     tau(  21) = (   0.2497992   0.2536793   1.7149371  )
        22        Li     tau(  22) = (  -0.0003133   0.4287217   1.5640735  )
        23        Li     tau(  23) = (   0.2501066   0.6048760   1.3901059  )
        24        Li     tau(  24) = (   0.2504229   0.9609569   1.0497362  )
        25        Li     tau(  25) = (   0.0001502   1.0288698   1.4921853  )
        26        Li     tau(  26) = (   0.0000327   0.1783037   1.3073332  )
        27        Li     tau(  27) = (   0.2504645   0.3572353   1.1257816  )
        28        Li     tau(  28) = (   0.0006737   0.5390503   0.9520455  )
        29        Li     tau(  29) = (   0.2504615   0.7203273   0.7960396  )
        30        Li     tau(  30) = (   0.0004682   0.7795903   1.2189855  )
        31        Li     tau(  31) = (   0.2505994   0.1026344   0.9207154  )
        32        Li     tau(  32) = (  -0.0006049   0.2790507   2.1535239  )
        33        Li     tau(  33) = (   0.2495472   0.4887417   1.9948241  )
        34        Li     tau(  34) = (  -0.0007666   0.9459353   2.0916249  )
        35        Li     tau(  35) = (   0.5005996   0.0241179   0.7619521  )
        36        Li     tau(  36) = (   0.4995383   0.6136161   2.1194375  )
        37        Li     tau(  37) = (   0.7493285   0.7948957   1.9634309  )
        38        Li     tau(  38) = (   0.7494011   0.2005362   1.9947693  )
        39        Li     tau(  39) = (   0.4995769   0.3729889   1.8657397  )
        40        Li     tau(  40) = (   0.7495306   0.5543554   1.6964894  )
        41        Li     tau(  41) = (   0.7503138   0.9052249   1.3514031  )
        42        Li     tau(  42) = (   0.4995359   0.9767112   1.7896923  )
        43        Li     tau(  43) = (   0.4999674   0.1248664   1.6081427  )
        44        Li     tau(  44) = (   0.7498500   0.3050765   1.4232932  )
        45        Li     tau(  45) = (   0.5002787   0.4798245   1.2599585  )
        46        Li     tau(  46) = (   0.7505925   0.6545378   1.0845496  )
        47        Li     tau(  47) = (   0.4998939   0.7290705   1.5253715  )
        48        Li     tau(  48) = (   0.7502004   0.0494918   1.2005338  )
        49        Li     tau(  49) = (   0.5005728   0.2377988   1.0067660  )
        50        Li     tau(  50) = (   0.7507671   0.3880150   0.8238536  )
        51        Li     tau(  51) = (   0.5004524   0.8452030   0.9206529  )
        52        Li     tau(  52) = (   0.4994301   0.0653705   1.9087095  )
        53        Li     tau(  53) = (   0.4994071   0.6794082   1.8309265  )
        54        Li     tau(  54) = (   0.7497217   0.8541221   1.6555174  )
        55        Li     tau(  55) = (   0.7497992   0.2536797   1.7149392  )
        56        Li     tau(  56) = (   0.4996863   0.4287215   1.5640729  )
        57        Li     tau(  57) = (   0.7501063   0.6048760   1.3901046  )
        58        Li     tau(  58) = (   0.7504227   0.9609569   1.0497362  )
        59        Li     tau(  59) = (   0.5001498   1.0288704   1.4921807  )
        60        Li     tau(  60) = (   0.5000331   0.1783042   1.3073332  )
        61        Li     tau(  61) = (   0.7504644   0.3572354   1.1257822  )
        62        Li     tau(  62) = (   0.5006709   0.5390497   0.9520451  )
        63        Li     tau(  63) = (   0.7504623   0.7203298   0.7960388  )
        64        Li     tau(  64) = (   0.5004692   0.7795916   1.2189868  )
        65        Li     tau(  65) = (   0.7505994   0.1026326   0.9207014  )
        66        Li     tau(  66) = (   0.4993897   0.2790495   2.1535237  )
        67        Li     tau(  67) = (   0.7495473   0.4887419   1.9948227  )
        68        Li     tau(  68) = (   0.4992327   0.9459322   2.0916219  )

     number of k points=    25  Marzari-Vanderbilt smearing, width (Ry)=  0.0100
                       cart. coord. in units 2pi/alat
        k(    1) = (   0.0000000   0.0000000   0.0000000), wk =   0.0408163
        k(    2) = (   0.0000000   0.1385918   0.0000000), wk =   0.0816327
        k(    3) = (   0.0000000   0.2771837   0.0000000), wk =   0.0816327
        k(    4) = (   0.0000000   0.4157755   0.0000000), wk =   0.0816327
        k(    5) = (   0.1428571   0.0346480   0.0000000), wk =   0.0816327
        k(    6) = (   0.1428571   0.1732398   0.0000000), wk =   0.0816327
        k(    7) = (   0.1428571   0.3118316   0.0000000), wk =   0.0816327
        k(    8) = (   0.1428571   0.4504235   0.0000000), wk =   0.0816327
        k(    9) = (   0.1428571  -0.3811276   0.0000000), wk =   0.0816327
        k(   10) = (   0.1428571  -0.2425357   0.0000000), wk =   0.0816327
        k(   11) = (   0.1428571  -0.1039439   0.0000000), wk =   0.0816327
        k(   12) = (   0.2857143   0.0692959   0.0000000), wk =   0.0816327
        k(   13) = (   0.2857143   0.2078878   0.0000000), wk =   0.0816327
        k(   14) = (   0.2857143   0.3464796   0.0000000), wk =   0.0816327
        k(   15) = (   0.2857143   0.4850714   0.0000000), wk =   0.0816327
        k(   16) = (   0.2857143  -0.3464796   0.0000000), wk =   0.0816327
        k(   17) = (   0.2857143  -0.2078878   0.0000000), wk =   0.0816327
        k(   18) = (   0.2857143  -0.0692959   0.0000000), wk =   0.0816327
        k(   19) = (   0.4285714   0.1039439   0.0000000), wk =   0.0816327
        k(   20) = (   0.4285714   0.2425357   0.0000000), wk =   0.0816327
        k(   21) = (   0.4285714   0.3811276   0.0000000), wk =   0.0816327
        k(   22) = (   0.4285714   0.5197194   0.0000000), wk =   0.0816327
        k(   23) = (   0.4285714  -0.3118316   0.0000000), wk =   0.0816327
        k(   24) = (   0.4285714  -0.1732398   0.0000000), wk =   0.0816327
        k(   25) = (   0.4285714  -0.0346480   0.0000000), wk =   0.0816327

     Initial potential from superposition of free atoms

     starting charge     203.6866, renormalised to     204.0000

     negative rho (up, down):  1.997E-03 0.000E+00
     Starting wfcs are  340 randomized atomic wfcs
     Checking if some PAW data can be deallocated...

     Self-consistent Calculation

     iteration #  1     ecut=    80.00 Ry     beta= 0.20
     Davidson diagonalization with overlap
     ethr =  1.00E-02,  avg # of iterations =  4.0

     negative rho (up, down):  5.070E-05 0.000E+00

     total energy              =   -1022.91296207 Ry
     estimated scf accuracy    <       8.22422475 Ry

[...]

     iteration #  7     ecut=    80.00 Ry     beta= 0.20
     Davidson diagonalization with overlap
     c_bands:  1 eigenvalues not converged
     ethr =  1.07E-04,  avg # of iterations = 11.5

[...]

     iteration # 16     ecut=    80.00 Ry     beta= 0.20
     Davidson diagonalization with overlap
     c_bands:  1 eigenvalues not converged
     c_bands:  1 eigenvalues not converged
     ethr =  7.37E-08,  avg # of iterations = 11.0

[...]

     total energy              =   -1022.52230715 Ry
     estimated scf accuracy    <       0.00000288 Ry

     iteration # 18     ecut=    80.00 Ry     beta= 0.20
     Davidson diagonalization with overlap
     ethr =  1.41E-09,  avg # of iterations =  4.0

     negative rho (up, down):  9.301E-05 0.000E+00

     End of self-consistent calculation

          k = 0.0000 0.0000 0.0000 (224845 PWs)   bands (ev):

   -48.4494 -48.4493 -48.4493 -48.4493 -48.2793 -48.2793 -48.2793 -48.2793
   -48.2695 -48.2694 -48.2694 -48.2694 -47.5985 -47.5985 -47.5984 -47.5984
   -47.5561 -47.5560 -47.5560 -47.5560 -47.5064 -47.5064 -47.5061 -47.5061
   -47.4135 -47.4112 -47.4085 -47.4069 -47.4069 -47.4048 -47.4035 -47.4035
   -47.3971 -47.3958 -47.3957 -47.3955 -47.3931 -47.3928 -47.3925 -47.3924
   -47.3911 -47.3910 -47.3909 -47.3900 -47.3890 -47.3889 -47.3886 -47.3871
   -47.3869 -47.3869 -47.3869 -47.3852 -47.3821 -47.3808 -47.3805 -47.3801
   -47.3732 -47.3729 -47.3716 -47.3703 -47.3386 -47.3386 -47.3379 -47.3379
   -47.2764 -47.2764 -47.2762 -47.2762  -4.3510  -4.0397  -3.4953  -3.2347
    -3.2330  -3.1005  -3.0912  -2.9194  -2.9146  -2.7893  -2.7855  -2.7575
    -2.5307  -2.5281  -2.3596  -2.3530  -2.3037  -2.2334  -2.2169  -2.1403
    -1.9438  -1.7047  -1.6684  -1.6042  -1.5897  -1.4958  -1.4947  -1.4573
    -1.4104  -1.1561  -1.1337  -1.0366  -0.9563  -0.9342  -0.7936  -0.7184
    -0.6894  -0.6800  -0.5716  -0.5485  -0.5320  -0.3139  -0.2104  -0.1862
    -0.1346  -0.1200  -0.1014   0.0036   0.0299   0.0932   0.1117   0.1769
     0.1773   0.2147   0.2904   0.3133   0.3392   0.3666   0.3707   0.5787
     0.6843   0.6906   0.8853   0.8875   0.9792   0.9977   1.0064   1.0778
     1.1213   1.2491   1.4130   1.5216   1.5749   1.7320   1.9089   1.9135
     1.9988   2.0070   2.0173   2.2131   2.2162   2.3869   2.3928   2.4484
     2.4967

[...]

          k = 0.4286-0.0346 0.0000 (224744 PWs)   bands (ev):

   -48.4494 -48.4493 -48.4493 -48.4493 -48.2793 -48.2793 -48.2793 -48.2793
   -48.2695 -48.2694 -48.2694 -48.2694 -47.5985 -47.5984 -47.5984 -47.5984
   -47.5560 -47.5560 -47.5560 -47.5560 -47.5063 -47.5063 -47.5062 -47.5062
   -47.4126 -47.4120 -47.4079 -47.4075 -47.4060 -47.4055 -47.4041 -47.4039
   -47.3966 -47.3964 -47.3948 -47.3945 -47.3936 -47.3934 -47.3926 -47.3925
   -47.3912 -47.3911 -47.3902 -47.3902 -47.3895 -47.3894 -47.3872 -47.3870
   -47.3869 -47.3869 -47.3866 -47.3861 -47.3814 -47.3811 -47.3806 -47.3804
   -47.3730 -47.3730 -47.3711 -47.3708 -47.3384 -47.3383 -47.3382 -47.3382
   -47.2763 -47.2763 -47.2763 -47.2763  -4.1319  -3.8725  -3.8209  -3.5619
    -3.3912  -3.2766  -3.0952  -3.0915  -2.9984  -2.9374  -2.7769  -2.6195
    -2.5397  -2.5315  -2.2660  -2.2130  -2.1307  -2.0575  -1.9129  -1.8200
    -1.7745  -1.7320  -1.5937  -1.4501  -1.4315  -1.3022  -1.2625  -1.2380
    -1.2339  -1.1347  -1.0373  -0.9467  -0.9248  -0.8902  -0.8452  -0.8365
    -0.8063  -0.5929  -0.5845  -0.5481  -0.5231  -0.4387  -0.4089  -0.3689
    -0.3290  -0.2862  -0.2440  -0.1360  -0.1321  -0.0772  -0.0769  -0.0003
     0.0382   0.1590   0.1795   0.1914   0.2578   0.3120   0.3732   0.4005
     0.5153   0.6589   0.7572   0.7777   0.8031   0.8520   0.9320   0.9922
     1.0094   1.1578   1.2730   1.4182   1.4339   1.6146   1.6734   1.8590
     1.9845   2.0694   2.0737   2.2507   2.2679   2.3752   2.4319   2.4368
     2.4927

     the Fermi energy is    -0.8744 ev

!    total energy              =   -1022.52230598 Ry
     total all-electron energy =     -1022.522859 Ry
     estimated scf accuracy    <       0.00000076 Ry
     smearing contrib. (-TS)   =      -0.00149180 Ry
     internal energy E=F+TS    =   -1022.52081418 Ry

     The total energy is F=E-TS. E is the sum of the following terms:
     one-electron contribution =   -4096.36300706 Ry
     hartree contribution      =    1951.53531572 Ry
     xc contribution           =    -243.80723981 Ry
     ewald contribution        =    1360.11960368 Ry
     one-center paw contrib.   =       5.99451330 Ry

     convergence has been achieved in  18 iterations

     Forces acting on atoms (cartesian axes, Ry/au):

     atom    1 type  1   force =    -0.00000474   -0.00002486    0.00021864
     atom    2 type  1   force =    -0.00001134   -0.00012095   -0.00014761
     atom    3 type  1   force =     0.00003134   -0.00007280   -0.00011201
     atom    4 type  1   force =     0.00001173   -0.00019377   -0.00005750
     atom    5 type  1   force =     0.00001283   -0.00002565    0.00035472
     atom    6 type  1   force =     0.00002045    0.00006902   -0.00007049
     atom    7 type  1   force =    -0.00001720   -0.00002073    0.00010004
     atom    8 type  1   force =     0.00000055    0.00010419    0.00017229
     atom    9 type  1   force =     0.00000866   -0.00010529   -0.00012657
     atom   10 type  1   force =     0.00002659   -0.00010020   -0.00014966
     atom   11 type  1   force =    -0.00002716   -0.00003461    0.00015593
     atom   12 type  1   force =    -0.00000254    0.00005653   -0.00021138
     atom   13 type  1   force =    -0.00000999   -0.00000042    0.00005187
     atom   14 type  1   force =    -0.00001490    0.00009439    0.00014250
     atom   15 type  1   force =    -0.00000755    0.00004179   -0.00004935
     atom   16 type  1   force =    -0.00001024    0.00002222    0.00016789
     atom   17 type  1   force =    -0.00000191   -0.00001920    0.00003792
     atom   18 type  1   force =     0.00000889   -0.00004459    0.00004868
     atom   19 type  1   force =     0.00000360   -0.00005350    0.00021057
     atom   20 type  1   force =     0.00002440    0.00003099   -0.00015324
     atom   21 type  1   force =     0.00001334   -0.00009584   -0.00013987
     atom   22 type  1   force =     0.00001515    0.00002048   -0.00010436
     atom   23 type  1   force =     0.00000604    0.00000436   -0.00005146
     atom   24 type  1   force =    -0.00001243    0.00002843   -0.00035236
     atom   25 type  1   force =    -0.00003111    0.00010181    0.00014753
     atom   26 type  1   force =    -0.00000740    0.00010514    0.00012550
     atom   27 type  1   force =    -0.00000345   -0.00010327   -0.00017198
     atom   28 type  1   force =    -0.00002824    0.00007675    0.00011458
     atom   29 type  1   force =     0.00001147    0.00012071    0.00014881
     atom   30 type  1   force =    -0.00002233   -0.00006751    0.00007086
     atom   31 type  1   force =    -0.00000874    0.00019265    0.00005661
     atom   32 type  1   force =     0.00000491    0.00002664   -0.00021895
     atom   33 type  1   force =     0.00000445    0.00001780   -0.00003597
     atom   34 type  1   force =     0.00001216   -0.00002138   -0.00016667
     atom   35 type  1   force =    -0.00000513   -0.00002530    0.00021700
     atom   36 type  1   force =    -0.00001417   -0.00012161   -0.00014769
     atom   37 type  1   force =     0.00002778   -0.00007758   -0.00011325
     atom   38 type  1   force =     0.00001183   -0.00019358   -0.00005732
     atom   39 type  1   force =     0.00001267   -0.00002949    0.00035357
     atom   40 type  1   force =     0.00002169    0.00007022   -0.00007178
     atom   41 type  1   force =    -0.00001747   -0.00002363    0.00010030
     atom   42 type  1   force =     0.00000645    0.00010225    0.00017145
     atom   43 type  1   force =     0.00000934   -0.00010769   -0.00012545
     atom   44 type  1   force =     0.00002850   -0.00009992   -0.00015047
     atom   45 type  1   force =    -0.00002523   -0.00003167    0.00015421
     atom   46 type  1   force =    -0.00000396    0.00005540   -0.00021047
     atom   47 type  1   force =    -0.00000890   -0.00000357    0.00005149
     atom   48 type  1   force =    -0.00001460    0.00009588    0.00014169
     atom   49 type  1   force =    -0.00000612    0.00004508   -0.00005093
     atom   50 type  1   force =    -0.00000981    0.00002107    0.00016803
     atom   51 type  1   force =    -0.00000278   -0.00001900    0.00003717
     atom   52 type  1   force =     0.00000948   -0.00004278    0.00004991
     atom   53 type  1   force =     0.00000100   -0.00005705    0.00021176
     atom   54 type  1   force =     0.00002547    0.00003202   -0.00015715
     atom   55 type  1   force =     0.00001191   -0.00009502   -0.00014253
     atom   56 type  1   force =     0.00001756    0.00002142   -0.00009860
     atom   57 type  1   force =     0.00000565    0.00000250   -0.00005082
     atom   58 type  1   force =    -0.00001640    0.00002458   -0.00035397
     atom   59 type  1   force =    -0.00002946    0.00010142    0.00014902
     atom   60 type  1   force =    -0.00000665    0.00010439    0.00012730
     atom   61 type  1   force =    -0.00000387   -0.00010195   -0.00017464
     atom   62 type  1   force =    -0.00002532    0.00007875    0.00011292
     atom   63 type  1   force =     0.00001400    0.00012217    0.00014970
     atom   64 type  1   force =    -0.00002297   -0.00006693    0.00006985
     atom   65 type  1   force =    -0.00000849    0.00019344    0.00005632
     atom   66 type  1   force =     0.00000752    0.00002350   -0.00021875
     atom   67 type  1   force =     0.00000579    0.00001705   -0.00003567
     atom   68 type  1   force =     0.00000942   -0.00002367   -0.00016768

     Total force =     0.001461     Total SCF correction =     0.000676
     SCF correction compared to forces is large: reduce conv_thr to get better values

     BFGS Geometry Optimization
     Energy error            =      2.1E-06 Ry
     Gradient error          =      3.5E-04 Ry/Bohr

     bfgs converged in   1 scf cycles and   0 bfgs steps
     (criteria: energy <  1.0E-05 Ry, force <  3.9E-04 Ry/Bohr)

     End of BFGS Geometry Optimization

     Final energy             =   -1022.5223059798 Ry
Begin final coordinates

ATOMIC_POSITIONS (angstrom)
Li               0.0059906600        0.2343476600        7.4031943600
Li              -0.0044945800        5.9619607500       20.5926344700
Li               2.4224794000        7.7232738300       19.0768668000
Li               2.4232016800        1.9484227800       19.3813150500
Li              -0.0041072800        3.6239897800       18.1276946600
Li               2.4244706700        5.3861635600       16.4832540200
Li               2.4320616100        8.7952430400       13.1303479000
Li              -0.0045095700        9.4898010800       17.3888370500
Li              -0.0003269900        1.2132123900       15.6248569200
Li               2.4275598100        2.9641475700       13.8288348500
Li               0.0027109400        4.6620123200       12.2418713100
Li               2.4347872700        6.3595586100       10.5376011000
Li              -0.0010334800        7.0837113500       14.8206337600
Li               2.4309719400        0.4808450000       11.6645664400
Li               0.0055293900        2.3104768300        9.7818301700
Li               2.4364711800        3.7699255800        8.0046098100
Li               0.0043993100        8.2120795100        8.9451413600
Li              -0.0055495500        0.6351452400       18.5451931600
Li              -0.0057643500        6.6011762000       17.7894271200
Li               2.4263131200        8.2987236100       16.0851528800
Li               2.4270707400        2.4647704300       16.6624809700
Li              -0.0030440200        4.1654980300       15.1966768400
Li               2.4300575600        5.8770285900       13.5063924400
Li               2.4331312000        9.3367428100       10.1993298000
Li               0.0014593300        9.9965906000       14.4982052300
Li               0.0003173400        1.7324144700       12.7021652900
Li               2.4335355100        3.4709297900       10.9381942100
Li               0.0065458000        5.2374605200        9.2501584200
Li               2.4335058900        6.9987636700        7.7343911000
Li               0.0045494000        7.5745690800       11.8437718400
Li               2.4348462800        0.9972049700        8.9457524100
Li              -0.0058776600        2.7112815100       20.9238296300
Li               2.4246225000        4.7486579300       19.3818882800
Li              -0.0074480600        9.1907909700       20.3224132200
Li               4.8638700400        0.2343319900        7.4031938900
Li               4.8535582200        5.9619487400       20.5926429800
Li               7.2805423300        7.7232769200       19.0768691400
Li               7.2812473800        1.9484274300       19.3813557900
Li               4.8539334800        3.6239929600       18.1276926800
Li               7.2825058000        5.3861658900       16.4832417200
Li               7.2901150800        8.7952456700       13.1303525700
Li               4.8535347000        9.4898124000       17.3888093800
Li               4.8577272700        1.2132134300       15.6248570300
Li               7.2856087400        2.9641500800       13.8288431700
Li               4.8607521100        4.6620174800       12.2418687200
Li               7.2928236400        6.3595473200       10.5375798800
Li               4.8570140200        7.0837133100       14.8206454900
Li               7.2890141700        0.4808669700       11.6644934500
Li               4.8636097000        2.3104745500        9.7818277100
Li               7.2945197100        3.7699878800        8.0046351300
Li               4.8624396700        8.2120674600        8.9451453100
Li               4.8525071300        0.6351457500       18.5451912900
Li               4.8522836800        6.6011907600       17.7894445100
Li               7.2843621900        8.2987261600       16.0851543200
Li               7.2851159100        2.4647741500       16.6625016900
Li               4.8549961800        4.1654960100       15.1966708200
Li               7.2880998500        5.8770291700       13.5063795700
Li               7.2911736700        9.3367428600       10.1993306200
Li               4.8595000900        9.9965960600       14.4981599900
Li               4.8583660600        1.7324192000       12.7021657400
Li               7.2915785000        3.4709308300       10.9382001700
Li               4.8645629000        5.2374551700        9.2501546700
Li               7.2915586600        6.9987885400        7.7343832900
Li               4.8626034400        7.5745808900       11.8437840500
Li               7.2928909100        0.9971872400        8.9456167000
Li               4.8521150700        2.7112701700       20.9238273600
Li               7.2826677300        4.7486596100       19.3818748600
Li               4.8505895100        9.1907610300       20.3223845900
End final coordinates

     Message from routine punch:
     Nothing written, as per user request (disk_io='none')

     General routines

     Parallel routines

   This run was terminated on:   0:41:29  23Jan2025

   JOB DONE.