     Program PWSCF v.7.4 starts on  4Jan2025 at 23: 7:31
        Git branch: develop
        Last git commit: e877ff360aceba4b8d76ffc2fb1c70545fc5dd57
        Last git commit date: Sat Jan 4 12:56:15 2025 +0000
        Last git commit subject: Merge branch 'orthoU' into 'develop'

     Reading input from espresso.pwi
Warning: card &CELL ignored
Warning: card    PRESS_CONV_THR   = 0.1 ignored
Warning: card    CELL_DOFREE      = 'ALL' ignored
Warning: card / ignored
Warning: card &FCP ignored
Warning: card / ignored
Warning: card &RISM ignored
Warning: card / ignored

     Current dimensions of program PWSCF are:
     Max number of different atomic species (ntypx) = 10
     Max number of k-points (npk) =  40000
     Max angular momentum in pseudopotentials (lmaxx) =  4

     IMPORTANT: XC functional enforced from input :
     Exchange-correlation= PBE
                           (   1   4   3   4   0   0   0)
     Any further DFT definition will be discarded
     Please, verify this is what you really want

     Reading input from environ.in:
     * using ionic solvent mode
     * setting boundary derivatives method to SSCS default
     * setting electrolyte-boundary derivatives method to SSCS default

Environ Warning (1001): card EOF ignored

     Found identity + (  0.0000  0.5000  0.0000) symmetry
     This is a supercell, fractional translations are disabled

     K-points division:     npool     =       2
     R & G space division:  proc/nbgrp/npool/nimage =     180
     Subspace diagonalization in iterative solution of the eigenvalue problem:
     a serial algorithm will be used

     Using Slab Decomposition

     bravais-lattice index     =            6
     lattice parameter (alat)  =      12.9830  a.u.
     unit-cell volume          =   16640.2915 (a.u.)^3
     number of atoms/cell      =           32
     number of atomic types    =            1
     number of electrons       =        96.00
     number of Kohn-Sham states=           72
     kinetic-energy cutoff     =      80.0000  Ry
     charge density cutoff     =     800.0000  Ry
     scf convergence threshold =      1.0E-06
     mixing beta               =       0.2000
     number of iterations used =            8  local-TF  mixing
     energy convergence thresh.=      1.0E-05
     force convergence thresh. =      3.9E-04
     Exchange-correlation= PBE
                           (   1   4   3   4   0   0   0)
     nstep                     =          999

                                  Environ Setup Summary

          O. Andreussi, I. Dabo and N. Marzari, J. Chem. Phys. 136, 064102 (2012)
          F. Nattino, M. Truscott, N. Marzari, and O. Andreussi, J. Chem. Phys. 150, 041722 (2019)

     in publications or presentations arising from this work.

     Parameters

     compensation onset threshold      =               0.1000E+00
     static permittivity               =                    89.90
     surface tension in input (dyn/cm) =                    37.30
     surface tension in internal units =               0.4792E-04

     Solvent Boundary

     solvent mode                      =                    ionic
     derivatives method                =                   lowmem
     electrolyte derivatives method    =                   lowmem
     numerical core for derivatives    =                      fft
     switching function adopted        =                     SCCS
     density limit for vacuum region   =               0.5000E-02
     density limit for bulk solvent    =               0.1000E-03
     soft-sphere radius mode           =                    bondi
     soft-sphere softness              =                     0.50
     alpha                             =                     1.32

     Electrostatic Setup

     electrostatic problem to solve    =                    modpb
     numerical solver adopted          =                   newton
     type of auxiliary density adopted =                     none
     numerical core for poisson        =                      fft
     adopting a nested solver scheme
     inner solver                      =                       cg
     inner core                        =                      fft
     type of pbc corrections           =                parabolic
     numerical core for corrections    =                      1da

     >>>>> Grand-Canonical SCF is activated <<<<<
     Initial Total Charge  =     0.000000 e
     Target Fermi Energy   =    -3.904000 eV
     Thr. of Fermi Energy  =     0.001000 eV
     Wave-shift of Kerker  =     0.400000 bohr^-1
     Wave-shift of Hartree =     1.500000 bohr^-1
     Mixing Rate of Fermi  =     0.050000

     celldm(1)=  12.983009  celldm(2)=   0.000000  celldm(3)=   7.603873
     celldm(4)=   0.000000  celldm(5)=   0.000000  celldm(6)=   0.000000

     crystal axes: (cart. coord. in units of alat)
               a(1) = (   1.000000   0.000000   0.000000 )
               a(2) = (   0.000000   1.000000   0.000000 )
               a(3) = (   0.000000   0.000000   7.603873 )

     reciprocal axes: (cart. coord. in units 2 pi/alat)
               b(1) = (  1.000000  0.000000  0.000000 )
               b(2) = (  0.000000  1.000000  0.000000 )
               b(3) = (  0.000000  0.000000  0.131512 )

     PseudoPot. # 1 for Li read from file:
     /home/mmm1182/Repos/Pseudopotentials/pslibrary/Li.pbe-sl-kjpaw_psl.1.0.0.UPF
     MD5 check sum: f40bb4162937df3f7c561f1969c76545
     Pseudo is Projector augmented-wave, Zval =  3.0
     Generated using 'atomic' code by A. Dal Corso  v.7.3.1
     Shape of augmentation charge: PSQ
     Using radial grid of 1017 points,  4 beta functions with:
                l(1) =   0
                l(2) =   0
                l(3) =   1
                l(4) =   1
     Q(r) pseudized with 0 coefficients

     atomic species   valence    mass     pseudopotential
     Li                3.00     6.94000     Li( 1.00)

      8 Sym. Ops. (no inversion) found

                                    s                        frac. trans.

      isym =  1     identity

 cryst.   s( 1) = (     1          0          0      )
                  (     0          1          0      )
                  (     0          0          1      )

 cart.    s( 1) = (  1.0000000  0.0000000  0.0000000 )
                  (  0.0000000  1.0000000  0.0000000 )
                  (  0.0000000  0.0000000  1.0000000 )

      isym =  2     180 deg rotation - cart. axis [0,0,1]

[...]

      isym =  4      90 deg rotation - cart. axis [0,0,1]

[...]

      isym =  5     inv. 180 deg rotation - cart. axis [0,1,0]

[...]

      isym =  8     inv. 180 deg rotation - cart. axis [1,-1,0]

 cryst.   s( 8) = (     0          1          0      )
                  (     1          0          0      )
                  (     0          0          1      )

 cart.    s( 8) = (  0.0000000  1.0000000  0.0000000 )
                  (  1.0000000  0.0000000  0.0000000 )
                  (  0.0000000  0.0000000  1.0000000 )

     point group C_4v (4mm)
     there are  5 classes
     the character table:

       E     2C4   C2    2s_v  2s_d
A_1    1.00  1.00  1.00  1.00  1.00
A_2    1.00  1.00  1.00 -1.00 -1.00
B_1    1.00 -1.00  1.00  1.00 -1.00
B_2    1.00 -1.00  1.00 -1.00  1.00
E      2.00  0.00 -2.00  0.00  0.00

     the symmetry operations in each class and the name of the first element:

     E        1
          identity
     2C4      3    4
           90 deg rotation - cart. axis [0,0,-1]
     C2       2
          180 deg rotation - cart. axis [0,0,1]
     2s_v     5    6
          inv. 180 deg rotation - cart. axis [0,1,0]
     2s_d     7    8
          inv. 180 deg rotation - cart. axis [1,1,0]

   Cartesian axes

     site n.     atom                  positions (alat units)
         1        Li     tau(   1) = (  -0.0000000  -0.0000000   3.1708639  )
         2        Li     tau(   2) = (   0.2500000   0.2500000   2.8924023  )
         3        Li     tau(   3) = (  -0.0000000  -0.0000000   3.6712293  )
         4        Li     tau(   4) = (   0.2500012   0.2500012   3.4180341  )
         5        Li     tau(   5) = (  -0.0000000  -0.0000000   4.1858625  )
         6        Li     tau(   6) = (   0.2499994   0.2499994   3.9326724  )
         7        Li     tau(   7) = (  -0.0000000  -0.0000000   4.7114672  )
         8        Li     tau(   8) = (   0.2499973   0.2499973   4.4330282  )
         9        Li     tau(   9) = (  -0.0000000   0.5000000   3.1708714  )
        10        Li     tau(  10) = (   0.2500000   0.7500000   2.8924023  )
        11        Li     tau(  11) = (  -0.0000000   0.5000000   3.6712252  )
        12        Li     tau(  12) = (   0.2500012   0.7499987   3.4180341  )
        13        Li     tau(  13) = (  -0.0000000   0.5000000   4.1858663  )
        14        Li     tau(  14) = (   0.2499994   0.7500005   3.9326724  )
        15        Li     tau(  15) = (  -0.0000000   0.5000000   4.7114663  )
        16        Li     tau(  16) = (   0.2499973   0.7500027   4.4330282  )
        17        Li     tau(  17) = (   0.5000000  -0.0000000   3.1708714  )
        18        Li     tau(  18) = (   0.7500000   0.2500000   2.8924023  )
        19        Li     tau(  19) = (   0.5000000  -0.0000000   3.6712252  )
        20        Li     tau(  20) = (   0.7499987   0.2500012   3.4180341  )
        21        Li     tau(  21) = (   0.5000000  -0.0000000   4.1858663  )
        22        Li     tau(  22) = (   0.7500005   0.2499994   3.9326724  )
        23        Li     tau(  23) = (   0.5000000  -0.0000000   4.7114663  )
        24        Li     tau(  24) = (   0.7500027   0.2499973   4.4330282  )
        25        Li     tau(  25) = (   0.5000000   0.5000000   3.1708714  )
        26        Li     tau(  26) = (   0.7500000   0.7500000   2.8924023  )
        27        Li     tau(  27) = (   0.5000000   0.5000000   3.6712149  )
        28        Li     tau(  28) = (   0.7499987   0.7499987   3.4180341  )
        29        Li     tau(  29) = (   0.5000000   0.5000000   4.1858724  )
        30        Li     tau(  30) = (   0.7500005   0.7500005   3.9326724  )
        31        Li     tau(  31) = (   0.5000000   0.5000000   4.7114655  )
        32        Li     tau(  32) = (   0.7500027   0.7500027   4.4330282  )

   Crystallographic axes

     site n.     atom                  positions (cryst. coord.)
         1        Li     tau(   1) = ( -0.0000000 -0.0000000  0.4170064  )
         2        Li     tau(   2) = (  0.2500000  0.2500000  0.3803854  )
         3        Li     tau(   3) = ( -0.0000000 -0.0000000  0.4828104  )
         4        Li     tau(   4) = (  0.2500012  0.2500012  0.4495123  )
         5        Li     tau(   5) = ( -0.0000000 -0.0000000  0.5504908  )
         6        Li     tau(   6) = (  0.2499994  0.2499994  0.5171933  )
         7        Li     tau(   7) = ( -0.0000000 -0.0000000  0.6196141  )
         8        Li     tau(   8) = (  0.2499973  0.2499973  0.5829961  )
         9        Li     tau(   9) = ( -0.0000000  0.5000000  0.4170074  )
        10        Li     tau(  10) = (  0.2500000  0.7500000  0.3803854  )
        11        Li     tau(  11) = ( -0.0000000  0.5000000  0.4828099  )
[...]
     atom   14 type  1   force =     0.00000010   -0.00000010   -0.00546563
     atom   15 type  1   force =     0.00000000    0.00000000    0.08713706
     atom   16 type  1   force =    -0.00000005    0.00000005    0.00245439
     atom   17 type  1   force =     0.00000000    0.00000000   -0.00245449
     atom   18 type  1   force =    -0.00000016    0.00000016   -0.08713607
     atom   19 type  1   force =     0.00000000    0.00000000    0.00546539
     atom   20 type  1   force =    -0.00000006    0.00000006   -0.00395677
     atom   21 type  1   force =     0.00000000    0.00000000    0.00395631
     atom   22 type  1   force =    -0.00000010    0.00000010   -0.00546563
     atom   23 type  1   force =     0.00000000    0.00000000    0.08713706
     atom   24 type  1   force =     0.00000005   -0.00000005    0.00245439
     atom   25 type  1   force =     0.00000000    0.00000000   -0.00245441
     atom   26 type  1   force =    -0.00000016   -0.00000016   -0.08713607
     atom   27 type  1   force =     0.00000000    0.00000000    0.00546540
     atom   28 type  1   force =    -0.00000006   -0.00000006   -0.00395677
     atom   29 type  1   force =     0.00000000    0.00000000    0.00395660
     atom   30 type  1   force =    -0.00000010   -0.00000010   -0.00546563
     atom   31 type  1   force =     0.00000000    0.00000000    0.08713657
     atom   32 type  1   force =     0.00000005    0.00000005    0.00245439
     The ionic contribution  to forces
     atom    1 type  1   force =    -0.00000001   -0.00000001   -9.76572996
     atom    2 type  1   force =     0.00000143    0.00000143  -13.41170014
     atom    3 type  1   force =    -0.00000001   -0.00000001   -1.96830673
     atom    4 type  1   force =     0.00000138    0.00000138   -5.91586168
     atom    5 type  1   force =    -0.00000000   -0.00000000    5.91579140
     atom    6 type  1   force =     0.00000009    0.00000009    1.96831918
     atom    7 type  1   force =    -0.00000001   -0.00000001   13.41174357
     atom    8 type  1   force =     0.00000225    0.00000225    9.76572145
     atom    9 type  1   force =    -0.00000001    0.00000001   -9.76571881
     atom   10 type  1   force =     0.00000143   -0.00000143  -13.41170011
     atom   11 type  1   force =    -0.00000001    0.00000001   -1.96833282
     atom   12 type  1   force =     0.00000138   -0.00000137   -5.91586170
     atom   13 type  1   force =    -0.00000000   -0.00000000    5.91585714
     atom   14 type  1   force =     0.00000009   -0.00000009    1.96831917
     atom   15 type  1   force =    -0.00000001    0.00000001   13.41171692
     atom   16 type  1   force =     0.00000225   -0.00000225    9.76572148
     atom   17 type  1   force =     0.00000001   -0.00000001   -9.76571881
     atom   18 type  1   force =    -0.00000143    0.00000143  -13.41170011
     atom   19 type  1   force =     0.00000001   -0.00000001   -1.96833282
     atom   20 type  1   force =    -0.00000137    0.00000138   -5.91586170
     atom   21 type  1   force =    -0.00000000   -0.00000000    5.91585714
     atom   22 type  1   force =    -0.00000009    0.00000009    1.96831917
     atom   23 type  1   force =     0.00000001   -0.00000001   13.41171692
     atom   24 type  1   force =    -0.00000225    0.00000225    9.76572148
     atom   25 type  1   force =     0.00000001    0.00000001   -9.76570455
     atom   26 type  1   force =    -0.00000143   -0.00000143  -13.41170010
     atom   27 type  1   force =     0.00000001    0.00000001   -1.96836113
     atom   28 type  1   force =    -0.00000137   -0.00000137   -5.91586171
     atom   29 type  1   force =    -0.00000000   -0.00000000    5.91591963
     atom   30 type  1   force =    -0.00000009   -0.00000009    1.96831916
     atom   31 type  1   force =     0.00000001    0.00000001   13.41168758
     atom   32 type  1   force =    -0.00000225   -0.00000225    9.76572149
     The local contribution  to forces
     atom    1 type  1   force =     0.00000407    0.00000407    9.83368964
     atom    2 type  1   force =     0.00000304    0.00000304   13.55419434
     atom    3 type  1   force =     0.00000407    0.00000407    1.97634783
     atom    4 type  1   force =     0.00000329    0.00000329    5.95943856
     atom    5 type  1   force =     0.00000407    0.00000407   -5.95936589
     atom    6 type  1   force =     0.00000421    0.00000421   -1.97635855
     atom    7 type  1   force =     0.00000350    0.00000350  -13.55423510
     atom    8 type  1   force =     0.00000204    0.00000204   -9.83367921
     atom    9 type  1   force =     0.00000407    0.00000499    9.83367823
     atom   10 type  1   force =     0.00000304    0.00000639   13.55419315
     atom   11 type  1   force =     0.00000407    0.00000441    1.97637404
     atom   12 type  1   force =     0.00000329    0.00000610    5.95943917
     atom   13 type  1   force =     0.00000407    0.00000383   -5.95943254
     atom   14 type  1   force =     0.00000421    0.00000461   -1.97635855
     atom   15 type  1   force =     0.00000350    0.00000442  -13.55420914
     atom   16 type  1   force =     0.00000204    0.00000677   -9.83367981
     atom   17 type  1   force =     0.00000499    0.00000407    9.83367823
     atom   18 type  1   force =     0.00000639    0.00000304   13.55419315
     atom   19 type  1   force =     0.00000441    0.00000407    1.97637404
     atom   20 type  1   force =     0.00000610    0.00000329    5.95943917
     atom   21 type  1   force =     0.00000383    0.00000407   -5.95943254
     atom   22 type  1   force =     0.00000461    0.00000421   -1.97635855
     atom   23 type  1   force =     0.00000442    0.00000350  -13.55420914
     atom   24 type  1   force =     0.00000677    0.00000204   -9.83367981
     atom   25 type  1   force =     0.00000499    0.00000499    9.83366367
     atom   26 type  1   force =     0.00000639    0.00000639   13.55419255
     atom   27 type  1   force =     0.00000441    0.00000441    1.97640254
     atom   28 type  1   force =     0.00000610    0.00000610    5.95943917
     atom   29 type  1   force =     0.00000383    0.00000383   -5.95949574
     atom   30 type  1   force =     0.00000461    0.00000461   -1.97635855
     atom   31 type  1   force =     0.00000442    0.00000442  -13.55418053
     atom   32 type  1   force =     0.00000677    0.00000677   -9.83367981
     The core correction contribution to forces
     atom    1 type  1   force =     0.00000000    0.00000000    0.00000000
     atom    2 type  1   force =     0.00000000    0.00000000    0.00000000
     atom    3 type  1   force =     0.00000000    0.00000000    0.00000000
     atom    4 type  1   force =     0.00000000    0.00000000    0.00000000
     atom    5 type  1   force =     0.00000000    0.00000000    0.00000000
     atom    6 type  1   force =     0.00000000    0.00000000    0.00000000
     atom    7 type  1   force =     0.00000000    0.00000000    0.00000000
     atom    8 type  1   force =     0.00000000    0.00000000    0.00000000
     atom    9 type  1   force =     0.00000000    0.00000000    0.00000000
     atom   10 type  1   force =     0.00000000    0.00000000    0.00000000
     atom   11 type  1   force =     0.00000000    0.00000000    0.00000000
     atom   12 type  1   force =     0.00000000    0.00000000    0.00000000
     atom   13 type  1   force =     0.00000000    0.00000000    0.00000000
     atom   14 type  1   force =     0.00000000    0.00000000    0.00000000
     atom   15 type  1   force =     0.00000000    0.00000000    0.00000000
     atom   16 type  1   force =     0.00000000    0.00000000    0.00000000
     atom   17 type  1   force =     0.00000000    0.00000000    0.00000000
     atom   18 type  1   force =     0.00000000    0.00000000    0.00000000
     atom   19 type  1   force =     0.00000000    0.00000000    0.00000000
     atom   20 type  1   force =     0.00000000    0.00000000    0.00000000
     atom   21 type  1   force =     0.00000000    0.00000000    0.00000000
     atom   22 type  1   force =     0.00000000    0.00000000    0.00000000
     atom   23 type  1   force =     0.00000000    0.00000000    0.00000000
     atom   24 type  1   force =     0.00000000    0.00000000    0.00000000
     atom   25 type  1   force =     0.00000000    0.00000000    0.00000000
     atom   26 type  1   force =     0.00000000    0.00000000    0.00000000
     atom   27 type  1   force =     0.00000000    0.00000000    0.00000000
     atom   28 type  1   force =     0.00000000    0.00000000    0.00000000
     atom   29 type  1   force =     0.00000000    0.00000000    0.00000000
     atom   30 type  1   force =     0.00000000    0.00000000    0.00000000
     atom   31 type  1   force =     0.00000000    0.00000000    0.00000000
     atom   32 type  1   force =     0.00000000    0.00000000    0.00000000
     The Hubbard contrib.    to forces
     atom    1 type  1   force =     0.00000000    0.00000000    0.00000000
     atom    2 type  1   force =     0.00000000    0.00000000    0.00000000
     atom    3 type  1   force =     0.00000000    0.00000000    0.00000000
     atom    4 type  1   force =     0.00000000    0.00000000    0.00000000
     atom    5 type  1   force =     0.00000000    0.00000000    0.00000000
     atom    6 type  1   force =     0.00000000    0.00000000    0.00000000
     atom    7 type  1   force =     0.00000000    0.00000000    0.00000000
     atom    8 type  1   force =     0.00000000    0.00000000    0.00000000
     atom    9 type  1   force =     0.00000000    0.00000000    0.00000000
     atom   10 type  1   force =     0.00000000    0.00000000    0.00000000
     atom   11 type  1   force =     0.00000000    0.00000000    0.00000000
     atom   12 type  1   force =     0.00000000    0.00000000    0.00000000
     atom   13 type  1   force =     0.00000000    0.00000000    0.00000000
     atom   14 type  1   force =     0.00000000    0.00000000    0.00000000
     atom   15 type  1   force =     0.00000000    0.00000000    0.00000000
     atom   16 type  1   force =     0.00000000    0.00000000    0.00000000
     atom   17 type  1   force =     0.00000000    0.00000000    0.00000000
     atom   18 type  1   force =     0.00000000    0.00000000    0.00000000
     atom   19 type  1   force =     0.00000000    0.00000000    0.00000000
     atom   20 type  1   force =     0.00000000    0.00000000    0.00000000
     atom   21 type  1   force =     0.00000000    0.00000000    0.00000000
     atom   22 type  1   force =     0.00000000    0.00000000    0.00000000
     atom   23 type  1   force =     0.00000000    0.00000000    0.00000000
     atom   24 type  1   force =     0.00000000    0.00000000    0.00000000
     atom   25 type  1   force =     0.00000000    0.00000000    0.00000000
     atom   26 type  1   force =     0.00000000    0.00000000    0.00000000
     atom   27 type  1   force =     0.00000000    0.00000000    0.00000000
     atom   28 type  1   force =     0.00000000    0.00000000    0.00000000
     atom   29 type  1   force =     0.00000000    0.00000000    0.00000000
     atom   30 type  1   force =     0.00000000    0.00000000    0.00000000
     atom   31 type  1   force =     0.00000000    0.00000000    0.00000000
     atom   32 type  1   force =     0.00000000    0.00000000    0.00000000
     The SCF correction term to forces
     atom    1 type  1   force =     0.00000000   -0.00000000   -0.00000396
     atom    2 type  1   force =     0.00000000    0.00000000    0.00000335
     atom    3 type  1   force =     0.00000000   -0.00000000   -0.00000013
     atom    4 type  1   force =     0.00000000    0.00000000   -0.00000036
     atom    5 type  1   force =     0.00000000   -0.00000000    0.00000052
     atom    6 type  1   force =     0.00000000    0.00000000    0.00000013
     atom    7 type  1   force =    -0.00000000    0.00000000   -0.00000329
     atom    8 type  1   force =     0.00000000    0.00000000    0.00000430
     atom    9 type  1   force =     0.00000000   -0.00000000   -0.00000399
     atom   10 type  1   force =     0.00000000   -0.00000000    0.00000335
     atom   11 type  1   force =    -0.00000000    0.00000000   -0.00000014
     atom   12 type  1   force =     0.00000000   -0.00000000   -0.00000036
     atom   13 type  1   force =    -0.00000000    0.00000000    0.00000051
     atom   14 type  1   force =     0.00000000   -0.00000000    0.00000013
     atom   15 type  1   force =    -0.00000000    0.00000000   -0.00000334
     atom   16 type  1   force =     0.00000000   -0.00000000    0.00000430
     atom   17 type  1   force =    -0.00000000   -0.00000000   -0.00000399
     atom   18 type  1   force =    -0.00000000    0.00000000    0.00000335
     atom   19 type  1   force =     0.00000000    0.00000000   -0.00000014
     atom   20 type  1   force =    -0.00000000    0.00000000   -0.00000036
     atom   21 type  1   force =    -0.00000000   -0.00000000    0.00000051
     atom   22 type  1   force =    -0.00000000    0.00000000    0.00000013
     atom   23 type  1   force =    -0.00000000    0.00000000   -0.00000334
     atom   24 type  1   force =    -0.00000000    0.00000000    0.00000430
     atom   25 type  1   force =    -0.00000000   -0.00000000   -0.00000396
     atom   26 type  1   force =    -0.00000000   -0.00000000    0.00000335
     atom   27 type  1   force =    -0.00000000   -0.00000000   -0.00000014
     atom   28 type  1   force =    -0.00000000   -0.00000000   -0.00000036
     atom   29 type  1   force =    -0.00000000    0.00000000    0.00000052
     atom   30 type  1   force =    -0.00000000   -0.00000000    0.00000013
     atom   31 type  1   force =    -0.00000000    0.00000000   -0.00000333
     atom   32 type  1   force =    -0.00000000   -0.00000000    0.00000430

     Total force =     0.001176     Total SCF correction =     0.000015
     Energy error            =      8.9E-06 Ry
     Gradient error          =      3.7E-04 Ry/Bohr

     bfgs converged in  21 scf cycles and  15 bfgs steps
     (criteria: energy <  1.0E-05 Ry, force <  3.9E-04 Ry/Bohr)

     End of BFGS Geometry Optimization

     Final energy             =    -481.3125155370 Ry

     File ./Li/Lithium.bfgs deleted, as requested
Begin final coordinates

ATOMIC_POSITIONS (angstrom)
Li              -0.0000000700       -0.0000000700       21.7998156684
Li               1.7175787991        1.7175787991       19.8440432772
Li              -0.0000000700       -0.0000000700       25.2230141609
Li               1.7175730211        1.7175730211       23.4828452235
Li              -0.0000000700       -0.0000000700       28.7582485209
Li               1.7175877315        1.7175877315       27.0181201799
Li              -0.0000000600       -0.0000000600       32.3970548600
Li               1.7175655400        1.7175655400       30.4412840785
Li              -0.0000000700        3.4351561600       21.7998206747
Li               1.7175787991        5.1527335309       19.8440432972
Li              -0.0000000700        3.4351561700       25.2230031274
Li               1.7175730211        5.1527393089       23.4828452135
Li              -0.0000000700        3.4351561800       28.7582780019
Li               1.7175877315        5.1527246085       27.0181201799
Li              -0.0000000600        3.4351561700       32.3970318100
Li               1.7175655400        5.1527468000       30.4412840885
Li               3.4351561600       -0.0000000700       21.7998206747
Li               5.1527335309        1.7175787991       19.8440432972
Li               3.4351561700       -0.0000000700       25.2230031274
Li               5.1527393089        1.7175730211       23.4828452135
Li               3.4351561800       -0.0000000700       28.7582780019
Li               5.1527246085        1.7175877315       27.0181201799
Li               3.4351561700       -0.0000000600       32.3970318100
Li               5.1527468000        1.7175655400       30.4412840885
Li               3.4351561600        3.4351561600       21.7998279247
Li               5.1527335309        5.1527335309       19.8440433072
Li               3.4351561700        3.4351561700       25.2229905460
Li               5.1527393089        5.1527393089       23.4828452135
Li               3.4351561800        3.4351561800       28.7583058184
Li               5.1527246085        5.1527246085       27.0181201799
Li               3.4351561700        3.4351561700       32.3970062122
Li               5.1527468000        5.1527468000       30.4412840885
End final coordinates

     Writing all to output data dir ./Li/Lithium.save/ :
     XML data file

     General routines

     Parallel routines

     PAW routines

     Environ routines

   This run was terminated on:   0:22:18   5Jan2025

   JOB DONE.