     Program PWSCF v.7.4 starts on  2Jan2025 at 10:45:29

     Reading input from espresso.pwi
Warning: card &CELL ignored
Warning: card    PRESS_CONV_THR   = 0.1 ignored
Warning: card    CELL_DOFREE      = 'ALL' ignored
Warning: card / ignored
Warning: card &FCP ignored
Warning: card / ignored
Warning: card &RISM ignored
Warning: card / ignored

     Current dimensions of program PWSCF are:
     Max number of different atomic species (ntypx) = 10
     Max number of k-points (npk) =  40000
     Max angular momentum in pseudopotentials (lmaxx) =  4

     IMPORTANT: XC functional enforced from input :
     Exchange-correlation= PBE
                           (   1   4   3   4   0   0   0)
     Any further DFT definition will be discarded
     Please, verify this is what you really want

     Reading input from environ.in:
     * using ionic solvent mode
     * setting boundary derivatives method to SSCS default
     * setting electrolyte-boundary derivatives method to SSCS default

Environ Warning (1001): card EOF ignored

     K-points division:     npool     =       2
     R & G space division:  proc/nbgrp/npool/nimage =     256
     Subspace diagonalization in iterative solution of the eigenvalue problem:
     a serial algorithm will be used

     Using Slab Decomposition

     bravais-lattice index     =           12
     lattice parameter (alat)  =      12.9830  a.u.
     unit-cell volume          =   12574.0527 (a.u.)^3
     number of atoms/cell      =           20
     number of atomic types    =            1
     number of electrons       =        60.00
     number of Kohn-Sham states=           45
     kinetic-energy cutoff     =      80.0000  Ry
     charge density cutoff     =     800.0000  Ry
     scf convergence threshold =      1.0E-06
     mixing beta               =       0.2000
     number of iterations used =            8  local-TF  mixing
     energy convergence thresh.=      1.0E-05
     force convergence thresh. =      3.9E-04
     Exchange-correlation= PBE
                           (   1   4   3   4   0   0   0)
     nstep                     =          999

                                  Environ Setup Summary

          O. Andreussi, I. Dabo and N. Marzari, J. Chem. Phys. 136, 064102 (2012)
          F. Nattino, M. Truscott, N. Marzari, and O. Andreussi, J. Chem. Phys. 150, 041722 (2019)

     in publications or presentations arising from this work.

     Parameters

     compensation onset threshold      =               0.1000E+00
     static permittivity               =                    89.90
     surface tension in input (dyn/cm) =                    37.30
     surface tension in internal units =               0.4792E-04

     Solvent Boundary

     solvent mode                      =                    ionic
     derivatives method                =                   lowmem
     electrolyte derivatives method    =                   lowmem
     numerical core for derivatives    =                      fft
     switching function adopted        =                     SCCS
     density limit for vacuum region   =               0.5000E-02
     density limit for bulk solvent    =               0.1000E-03
     soft-sphere radius mode           =                    bondi
     soft-sphere softness              =                     0.50
     alpha                             =                     1.32

     Electrostatic Setup

     electrostatic problem to solve    =                    modpb
     numerical solver adopted          =                   newton
     type of auxiliary density adopted =                     none
     numerical core for poisson        =                      fft
     adopting a nested solver scheme
     inner solver                      =                       cg
     inner core                        =                      fft
     type of pbc corrections           =                parabolic
     numerical core for corrections    =                      1da

     >>>>> Grand-Canonical SCF is activated <<<<<
     Initial Total Charge  =     0.000000 e
     Target Fermi Energy   =    -2.904000 eV
     Thr. of Fermi Energy  =     0.001000 eV
     Wave-shift of Kerker  =     0.400000 bohr^-1
     Wave-shift of Hartree =     1.500000 bohr^-1
     Mixing Rate of Fermi  =     0.050000

     celldm(1)=  12.983009  celldm(2)=   0.829156  celldm(3)=   7.267908
     celldm(4)=  -0.301511  celldm(5)=   0.000000  celldm(6)=   0.000000

     crystal axes: (cart. coord. in units of alat)
               a(1) = (   1.000000   0.000000   0.000000 )
               a(2) = (  -0.250000   0.790569   0.000000 )
               a(3) = (   0.000000   0.000000   7.267908 )

     reciprocal axes: (cart. coord. in units 2 pi/alat)
               b(1) = (  1.000000  0.316228 -0.000000 )
               b(2) = (  0.000000  1.264912  0.000000 )
               b(3) = (  0.000000 -0.000000  0.137591 )

     PseudoPot. # 1 for Li read from file:
     /work/e89/e89/ba3g18/Repos/Pseudopotentials/Pslibrary/Li.pbe-sl-kjpaw_psl.1.0.0.UPF
     MD5 check sum: 3f4d2cafebb47c6c3aa8ed472e6f074d
     Pseudo is Projector augmented-wave, Zval =  3.0
     Generated using 'atomic' code by A. Dal Corso  v.7.4
     Shape of augmentation charge: PSQ
     Using radial grid of 1017 points,  4 beta functions with:
                l(1) =   0
                l(2) =   0
                l(3) =   1
                l(4) =   1
     Q(r) pseudized with 0 coefficients

     atomic species   valence    mass     pseudopotential
     Li                3.00     6.94000     Li( 1.00)

     No symmetry found

                                    s                        frac. trans.

      isym =  1     identity

 cryst.   s( 1) = (     1          0          0      )
                  (     0          1          0      )
                  (     0          0          1      )

 cart.    s( 1) = (  1.0000000 -0.0000000  0.0000000 )
                  (  0.0000000  1.0000000  0.0000000 )
                  (  0.0000000  0.0000000  1.0000000 )

     point group C_1 (1)
     there are  1 classes
     the character table:

       E
A      1.00

     the symmetry operations in each class and the name of the first element:

     E        1
          identity

   Cartesian axes

     site n.     atom                  positions (alat units)
         1        Li     tau(   1) = (   0.2502963   0.3204171   3.0702267  )
         2        Li     tau(   2) = (   0.0002863   0.6453842   3.2428198  )
         3        Li     tau(   3) = (   0.0001726   0.1676813   3.3840503  )
         4        Li     tau(   4) = (   0.2500940   0.4722733   3.5608164  )
         5        Li     tau(   5) = (   0.2499021   0.0020099   3.7071725  )
         6        Li     tau(   6) = (  -0.0001739   0.3066287   3.8838669  )
         7        Li     tau(   7) = (   0.2497029   0.6195145   4.0251277  )
         8        Li     tau(   8) = (   0.2497012   0.1539788   4.1976142  )
         9        Li     tau(   9) = (  -0.0003886   0.5081047   4.3736774  )
        10        Li     tau(  10) = (   0.5003892  -0.0336773   2.8941273  )
        11        Li     tau(  11) = (   0.7502940   0.3204038   3.0702134  )
        12        Li     tau(  12) = (   0.5002964   0.6453656   3.2428227  )
        13        Li     tau(  13) = (   0.5001769   0.1676683   3.3840466  )
        14        Li     tau(  14) = (   0.7500956   0.4722692   3.5608308  )
        15        Li     tau(  15) = (   0.7499095   0.0020088   3.7071934  )
        16        Li     tau(  16) = (   0.4998228   0.3066383   3.8838760  )
        17        Li     tau(  17) = (   0.7497150   0.6194915   4.0251313  )
        18        Li     tau(  18) = (   0.7497038   0.1539722   4.1976111  )
        19        Li     tau(  19) = (   0.4996101   0.5081094   4.3736997  )
        20        Li     tau(  20) = (   1.0003942  -0.0336858   2.8941505  )

   Crystallographic axes

     site n.     atom                  positions (cryst. coord.)
         1        Li     tau(   1) = (  0.3516211  0.4052993  0.4224361  )
         2        Li     tau(   2) = (  0.2043749  0.8163541  0.4461834  )
         3        Li     tau(   3) = (  0.0531981  0.2121020  0.4656155  )
         4        Li     tau(   4) = (  0.3994400  0.5973840  0.4899369  )
         5        Li     tau(   5) = (  0.2505377  0.0025424  0.5100742  )
         6        Li     tau(   6) = (  0.0967907  0.3878583  0.5343858  )
         7        Li     tau(   7) = (  0.4456107  0.7836311  0.5538220  )
         8        Li     tau(   8) = (  0.2983936  0.1947695  0.5775547  )
         9        Li     tau(   9) = (  0.1602884  0.6427076  0.6017794  )
        10        Li     tau(  10) = (  0.4897395 -0.0425988  0.3982064  )
        11        Li     tau(  11) = (  0.8516147  0.4052826  0.4224343  )
        12        Li     tau(  12) = (  0.7043790  0.8163305  0.4461838  )
        13        Li     tau(  13) = (  0.5531983  0.2120856  0.4656149  )
        14        Li     tau(  14) = (  0.8994403  0.5973788  0.4899389  )
        15        Li     tau(  15) = (  0.7505447  0.0025409  0.5100771  )
        16        Li     tau(  16) = (  0.5967904  0.3878704  0.5343871  )
        17        Li     tau(  17) = (  0.9456155  0.7836020  0.5538226  )
        18        Li     tau(  18) = (  0.7983941  0.1947612  0.5775542  )
        19        Li     tau(  19) = (  0.6602884  0.6427135  0.6017825  )
        20        Li     tau(  20) = (  0.9897418 -0.0426096  0.3982096  )

     number of k points=    62  Marzari-Vanderbilt smearing, width (Ry)=  0.0100
                       cart. coord. in units 2pi/alat
        k(    1) = (   0.0000000   0.0000000   0.0000000), wk =   0.0166667
        k(    2) = (   0.0000000   0.1054093   0.0000000), wk =   0.0333333
        k(    3) = (   0.0000000   0.2108186   0.0000000), wk =   0.0333333
        k(    4) = (   0.0000000   0.3162279   0.0000000), wk =   0.0333333
        k(    5) = (   0.0000000   0.4216372   0.0000000), wk =   0.0333333
        k(    6) = (   0.0000000   0.5270466   0.0000000), wk =   0.0333333
        k(    7) = (   0.0000000  -0.6324559   0.0000000), wk =   0.0166667
        k(    8) = (   0.1000000   0.0316228   0.0000000), wk =   0.0333333
        k(    9) = (   0.1000000   0.1370321   0.0000000), wk =   0.0333333
        k(   10) = (   0.1000000   0.2424414   0.0000000), wk =   0.0333333
        k(   11) = (   0.1000000   0.3478507   0.0000000), wk =   0.0333333
        k(   12) = (   0.1000000   0.4532600   0.0000000), wk =   0.0333333
        k(   13) = (   0.1000000   0.5586693   0.0000000), wk =   0.0333333
        k(   14) = (   0.1000000  -0.6008331   0.0000000), wk =   0.0333333
        k(   15) = (   0.1000000  -0.4954238   0.0000000), wk =   0.0333333
        k(   16) = (   0.1000000  -0.3900144   0.0000000), wk =   0.0333333
        k(   17) = (   0.1000000  -0.2846051   0.0000000), wk =   0.0333333
        k(   18) = (   0.1000000  -0.1791958   0.0000000), wk =   0.0333333
        k(   19) = (   0.1000000  -0.0737865   0.0000000), wk =   0.0333333
        k(   20) = (   0.2000000   0.0632456   0.0000000), wk =   0.0333333
[...]
    -4.2168  -4.2168  -3.8427  -3.8427  -3.6600  -3.6600  -2.8843  -2.8843
    -2.6472  -2.6472  -1.8046  -1.8046  -1.4441  -1.4441  -0.8336  -0.8336
    -0.7435  -0.7435   0.0753   0.0753   0.2053

     occupation numbers
     1.0000   1.0000   1.0000   1.0000   1.0000   1.0000   1.0000   1.0000
     1.0000   1.0000   1.0000   1.0000   1.0000   1.0000   1.0000   1.0000
     1.0000   1.0000   1.0000   1.0000   1.0000   1.0000   1.0000   1.0000
     1.0000   1.0000   1.0000   1.0000   1.0000   1.0000   0.3072   0.3071
     0.0006   0.0006   0.0000   0.0000   0.0000   0.0000   0.0000   0.0000
     0.0000   0.0000   0.0000   0.0000   0.0000

     the Fermi energy is    -2.9040 ev

!    total energy              =    -300.71725690 Ry
     total all-electron energy =      -300.717419 Ry
     estimated scf accuracy    <          2.6E-13 Ry

!    total charge of GC-SCF    =       0.44682031 e
     smearing contrib. (-TS)   =      -0.00067914 Ry
     internal energy E=F+TS    =    -300.71657776 Ry

     The total energy is F=E-TS. E is the sum of the following terms:
     one-electron contribution =   -3429.80135042 Ry
     hartree contribution      =    1681.76055198 Ry
     xc contribution           =     -71.44137065 Ry
     ewald contribution        =    1528.85187287 Ry
     one-center paw contrib.   =       1.76478612 Ry
      -> PAW hartree energy AE =       7.39622766 Ry
      -> PAW hartree energy PS =      -7.17351741 Ry
      -> PAW xc energy AE      =      -3.47924696 Ry
      -> PAW xc energy PS      =       3.34476613 Ry
      -> total E_H with PAW    =    1681.98326223 Ry
      -> total E_XC with PAW   =     -71.57585147 Ry
     pot.stat. contrib. (-muN) =      -0.09536936 Ry
     electrostatic embedding   =      -0.05197330 Ry
     cavitation energy         =       0.01553868 Ry
     electrolyte free energy   =      -0.00198387 Ry
     correction to one-el term =     -11.71727982 Ry

     WARNING: you are using the parabolic pbc correction;
              the potential shift above must be added to
              band and Fermi energies.

     convergence has been achieved in  16 iterations
     The dielectric solvent contribution to forces
     atom    1 type  1   force =    -0.00000062   -0.00495645   -0.01078853
     atom    2 type  1   force =    -0.00000022    0.00168407   -0.00823842
     atom    3 type  1   force =    -0.00000022   -0.00035809   -0.00598733
     atom    4 type  1   force =    -0.00000001   -0.00006789   -0.00146627
     atom    5 type  1   force =    -0.00000001    0.00006778    0.00139672
     atom    6 type  1   force =     0.00000024    0.00035819    0.00592453
     atom    7 type  1   force =     0.00000009   -0.00168338    0.00817522
     atom    8 type  1   force =     0.00000027    0.00495546    0.01073541
     atom    9 type  1   force =     0.00000011   -0.00566287    0.02007869
     atom   10 type  1   force =    -0.00000035    0.00566568   -0.02013657
     atom   11 type  1   force =    -0.00000024   -0.00495633   -0.01078867
     atom   12 type  1   force =    -0.00000010    0.00168411   -0.00823843
     atom   13 type  1   force =    -0.00000020   -0.00035808   -0.00598732
     atom   14 type  1   force =     0.00000002   -0.00006788   -0.00146629
     atom   15 type  1   force =     0.00000000    0.00006778    0.00139669
     atom   16 type  1   force =     0.00000019    0.00035814    0.00592448
     atom   17 type  1   force =     0.00000022   -0.00168334    0.00817520
     atom   18 type  1   force =     0.00000057    0.00495565    0.01073548
     atom   19 type  1   force =     0.00000053   -0.00566269    0.02007852
     atom   20 type  1   force =    -0.00000028    0.00566575   -0.02013678

     Forces acting on atoms (cartesian axes, Ry/au):

     atom    1 type  1   force =    -0.00000272   -0.00004253   -0.00003852
     atom    2 type  1   force =     0.00000045   -0.00003833    0.00013766
     atom    3 type  1   force =    -0.00000188    0.00030034    0.00011523
     atom    4 type  1   force =     0.00000022   -0.00006760   -0.00001146
     atom    5 type  1   force =    -0.00000019    0.00006930   -0.00001513
     atom    6 type  1   force =     0.00000210   -0.00030148   -0.00013243
     atom    7 type  1   force =    -0.00000112    0.00004092   -0.00013980
     atom    8 type  1   force =     0.00000236    0.00004252    0.00005319
     atom    9 type  1   force =    -0.00000261    0.00002550   -0.00000788
     atom   10 type  1   force =     0.00000264   -0.00002747    0.00003757
     atom   11 type  1   force =    -0.00000266   -0.00004274   -0.00003849
     atom   12 type  1   force =     0.00000090   -0.00003901    0.00013784
     atom   13 type  1   force =    -0.00000152    0.00030046    0.00011594
     atom   14 type  1   force =     0.00000022   -0.00006764   -0.00001182
     atom   15 type  1   force =    -0.00000013    0.00006926   -0.00001530
     atom   16 type  1   force =     0.00000126   -0.00030180   -0.00013275
     atom   17 type  1   force =    -0.00000022    0.00004015   -0.00013900
     atom   18 type  1   force =     0.00000274    0.00004244    0.00005303
     atom   19 type  1   force =    -0.00000273    0.00002540   -0.00000658
     atom   20 type  1   force =     0.00000289   -0.00002769    0.00003870
     The non-local contrib.  to forces
     atom    1 type  1   force =     0.00002606    0.00386644   -0.03613829
     atom    2 type  1   force =     0.00002946    0.00085896    0.00128755
     atom    3 type  1   force =     0.00003427    0.00170290   -0.00474806
     atom    4 type  1   force =     0.00002518   -0.00223610    0.00096121
     atom    5 type  1   force =    -0.00002489    0.00224426   -0.00102378
     atom    6 type  1   force =    -0.00003389   -0.00170578    0.00472075
     atom    7 type  1   force =    -0.00003067   -0.00086024   -0.00129078
     atom    8 type  1   force =    -0.00002668   -0.00387405    0.03619629
     atom    9 type  1   force =    -0.00002702   -0.00002694    0.08970928
     atom   10 type  1   force =     0.00002626    0.00003730   -0.08968401
     atom   11 type  1   force =     0.00002660    0.00386706   -0.03613828
     atom   12 type  1   force =     0.00003023    0.00085884    0.00128749
     atom   13 type  1   force =     0.00003468    0.00170359   -0.00474732
     atom   14 type  1   force =     0.00002523   -0.00223626    0.00096082
     atom   15 type  1   force =    -0.00002511    0.00224404   -0.00102390
     atom   16 type  1   force =    -0.00003502   -0.00170699    0.00471979
     atom   17 type  1   force =    -0.00002916   -0.00086022   -0.00129019
     atom   18 type  1   force =    -0.00002567   -0.00387312    0.03619698
     atom   19 type  1   force =    -0.00002666   -0.00002625    0.08970880
     atom   20 type  1   force =     0.00002673    0.00003817   -0.08968484
     The ionic contribution  to forces
     atom    1 type  1   force =    -0.00012349    0.05125041   -9.39808764
     atom    2 type  1   force =    -0.00014494   -0.06383187   -6.40272212
     atom    3 type  1   force =    -0.00003569    0.03693658   -4.18518137
     atom    4 type  1   force =    -0.00006612   -0.02363451   -1.14781169
     atom    5 type  1   force =     0.00006587    0.02367666    1.14700683
     atom    6 type  1   force =     0.00004397   -0.03704787    4.18592554
     atom    7 type  1   force =     0.00012136    0.06390174    6.40157931
     atom    8 type  1   force =     0.00011201   -0.05123956    9.39923458
     atom    9 type  1   force =     0.00001852    0.01584797   11.20076332
     atom   10 type  1   force =    -0.00001979   -0.01585538  -11.20064416
     atom   11 type  1   force =    -0.00011788    0.05125084   -9.39809792
     atom   12 type  1   force =    -0.00012970   -0.06383798   -6.40273748
     atom   13 type  1   force =    -0.00003351    0.03694148   -4.18522563
     atom   14 type  1   force =    -0.00006188   -0.02363287   -1.14780705
     atom   15 type  1   force =     0.00006286    0.02367691    1.14700311
     atom   16 type  1   force =     0.00002406   -0.03705879    4.18593428
     atom   17 type  1   force =     0.00015422    0.06389953    6.40155163
     atom   18 type  1   force =     0.00012688   -0.05123567    9.39926155
     atom   19 type  1   force =     0.00001711    0.01584755   11.20073490
     atom   20 type  1   force =    -0.00001387   -0.01585517  -11.20068000
     The local contribution  to forces
     atom    1 type  1   force =     0.00009532   -0.05020290    9.44497390
     atom    2 type  1   force =     0.00011617    0.06125046    6.40980854
     atom    3 type  1   force =    -0.00000025   -0.03798110    4.19603201
     atom    4 type  1   force =     0.00004120    0.02587067    1.14830570
     atom    5 type  1   force =    -0.00004115   -0.02591913   -1.14739513
     atom    6 type  1   force =    -0.00000821    0.03809401   -4.19670318
     atom    7 type  1   force =    -0.00009189   -0.06131710   -6.40860147
     atom    8 type  1   force =    -0.00008324    0.05020063   -9.44611078
     atom    9 type  1   force =     0.00000577   -0.01013216  -11.31055916
     atom   10 type  1   force =    -0.00000349    0.01012435   11.31050213
     atom   11 type  1   force =     0.00008886   -0.05020427    9.44498434
     atom   12 type  1   force =     0.00010049    0.06125598    6.40982415
     atom   13 type  1   force =    -0.00000248   -0.03798657    4.19607622
     atom   14 type  1   force =     0.00003685    0.02586913    1.14830110
     atom   15 type  1   force =    -0.00003787   -0.02591921   -1.14739144
     atom   16 type  1   force =     0.00001205    0.03810588   -4.19671123
     atom   17 type  1   force =    -0.00012553   -0.06131572   -6.40857357
     atom   18 type  1   force =    -0.00009906    0.05019554   -9.44613873
     atom   19 type  1   force =     0.00000625   -0.01013271  -11.31052878
     atom   20 type  1   force =    -0.00000972    0.01012295   11.31054016
     The core correction contribution to forces
     atom    1 type  1   force =     0.00000000    0.00000000    0.00000000
     atom    2 type  1   force =     0.00000000    0.00000000    0.00000000
     atom    3 type  1   force =     0.00000000    0.00000000    0.00000000
     atom    4 type  1   force =     0.00000000    0.00000000    0.00000000
     atom    5 type  1   force =     0.00000000    0.00000000    0.00000000
     atom    6 type  1   force =     0.00000000    0.00000000    0.00000000
     atom    7 type  1   force =     0.00000000    0.00000000    0.00000000
     atom    8 type  1   force =     0.00000000    0.00000000    0.00000000
     atom    9 type  1   force =     0.00000000    0.00000000    0.00000000
     atom   10 type  1   force =     0.00000000    0.00000000    0.00000000
     atom   11 type  1   force =     0.00000000    0.00000000    0.00000000
     atom   12 type  1   force =     0.00000000    0.00000000    0.00000000
     atom   13 type  1   force =     0.00000000    0.00000000    0.00000000
     atom   14 type  1   force =     0.00000000    0.00000000    0.00000000
     atom   15 type  1   force =     0.00000000    0.00000000    0.00000000
     atom   16 type  1   force =     0.00000000    0.00000000    0.00000000
     atom   17 type  1   force =     0.00000000    0.00000000    0.00000000
     atom   18 type  1   force =     0.00000000    0.00000000    0.00000000
     atom   19 type  1   force =     0.00000000    0.00000000    0.00000000
     atom   20 type  1   force =     0.00000000    0.00000000    0.00000000
     The Hubbard contrib.    to forces
     atom    1 type  1   force =     0.00000000    0.00000000    0.00000000
     atom    2 type  1   force =     0.00000000    0.00000000    0.00000000
     atom    3 type  1   force =     0.00000000    0.00000000    0.00000000
     atom    4 type  1   force =     0.00000000    0.00000000    0.00000000
     atom    5 type  1   force =     0.00000000    0.00000000    0.00000000
     atom    6 type  1   force =     0.00000000    0.00000000    0.00000000
     atom    7 type  1   force =     0.00000000    0.00000000    0.00000000
     atom    8 type  1   force =     0.00000000    0.00000000    0.00000000
     atom    9 type  1   force =     0.00000000    0.00000000    0.00000000
     atom   10 type  1   force =     0.00000000    0.00000000    0.00000000
     atom   11 type  1   force =     0.00000000    0.00000000    0.00000000
     atom   12 type  1   force =     0.00000000    0.00000000    0.00000000
     atom   13 type  1   force =     0.00000000    0.00000000    0.00000000
     atom   14 type  1   force =     0.00000000    0.00000000    0.00000000
     atom   15 type  1   force =     0.00000000    0.00000000    0.00000000
     atom   16 type  1   force =     0.00000000    0.00000000    0.00000000
     atom   17 type  1   force =     0.00000000    0.00000000    0.00000000
     atom   18 type  1   force =     0.00000000    0.00000000    0.00000000
     atom   19 type  1   force =     0.00000000    0.00000000    0.00000000
     atom   20 type  1   force =     0.00000000    0.00000000    0.00000000
     The SCF correction term to forces
     atom    1 type  1   force =     0.00000002   -0.00000002    0.00000200
     atom    2 type  1   force =    -0.00000001    0.00000006    0.00000207
     atom    3 type  1   force =     0.00000001    0.00000005   -0.00000005
     atom    4 type  1   force =    -0.00000001    0.00000024   -0.00000044
     atom    5 type  1   force =    -0.00000001   -0.00000026    0.00000019
     atom    6 type  1   force =     0.00000000   -0.00000002   -0.00000011
     atom    7 type  1   force =     0.00000000   -0.00000009   -0.00000212
     atom    8 type  1   force =     0.00000001    0.00000004   -0.00000235
     atom    9 type  1   force =     0.00000003   -0.00000049   -0.00000004
     atom   10 type  1   force =     0.00000002    0.00000060    0.00000014
     atom   11 type  1   force =     0.00000001   -0.00000004    0.00000199
     atom   12 type  1   force =    -0.00000002    0.00000005    0.00000207
     atom   13 type  1   force =     0.00000001    0.00000005   -0.00000004
     atom   14 type  1   force =     0.00000000    0.00000025   -0.00000044
     atom   15 type  1   force =    -0.00000000   -0.00000026    0.00000020
     atom   16 type  1   force =    -0.00000002   -0.00000003   -0.00000011
     atom   17 type  1   force =     0.00000002   -0.00000009   -0.00000212
     atom   18 type  1   force =     0.00000003    0.00000004   -0.00000230
     atom   19 type  1   force =     0.00000005   -0.00000048   -0.00000005
     atom   20 type  1   force =     0.00000003    0.00000063    0.00000012

     Total force =     0.000741     Total SCF correction =     0.000006
     Energy error            =      1.7E-06 Ry
     Gradient error          =      3.0E-04 Ry/Bohr

     bfgs converged in  31 scf cycles and  30 bfgs steps
     (criteria: energy <  1.0E-05 Ry, force <  3.9E-04 Ry/Bohr)

     End of BFGS Geometry Optimization

     Final energy             =    -300.7172569003 Ry

     File ./Li/Lithium.bfgs deleted, as requested
Begin final coordinates

ATOMIC_POSITIONS (angstrom)
Li               1.7195865390        2.1870999297       21.0777564112
Li               0.0018080886        4.3473692036       22.3101584606
Li               0.0011088482        1.1132550690       23.2175061031
Li               1.7181249476        3.2231282997       24.4958916373
Li               1.7170457928        0.0367090189       25.4380994215
Li              -0.0011179556        2.1462048692       26.7165798544
Li               1.7157685649        4.3431993993       27.6222759126
Li               1.7155771282        1.0708979896       28.8547426408
Li              -0.0020594741        3.5132395523       29.9122088753
Li               3.4372071102       -0.2552949202       20.0188113911
Li               5.1547474216        2.1871080336       21.0777498032
Li               3.4369714695        4.3473817164       22.3101510867
Li               3.4362651663        1.1132528770       23.2174827372
Li               5.1532710076        3.2231358748       24.4958979554
Li               5.1521830407        0.0367072123       25.4381013545
Li               3.4340605991        2.1462090918       26.7165882674
Li               5.1509197387        4.3432273022       27.6222597129
Li               5.1507238439        1.0708980931       28.8547537376
Li               3.4331057009        3.5132380754       29.9121696598
Li               6.8723610254       -0.2552889131       20.0187698618
End final coordinates

     Writing all to output data dir ./Li/Lithium.save/ :
     XML data file

     General routines

     Parallel routines

     PAW routines

     Environ routines

   This run was terminated on:  14: 9:27   2Jan2025

   JOB DONE.