     Program PWSCF v.7.4 starts on  2Jan2025 at 10:51:35

     Reading input from espresso.pwi
Warning: card &CELL ignored
Warning: card    PRESS_CONV_THR   = 0.1 ignored
Warning: card    CELL_DOFREE      = 'ALL' ignored
Warning: card / ignored
Warning: card &FCP ignored
Warning: card / ignored
Warning: card &RISM ignored
Warning: card / ignored

     Current dimensions of program PWSCF are:
     Max number of different atomic species (ntypx) = 10
     Max number of k-points (npk) =  40000
     Max angular momentum in pseudopotentials (lmaxx) =  4

     IMPORTANT: XC functional enforced from input :
     Exchange-correlation= PBE
                           (   1   4   3   4   0   0   0)
     Any further DFT definition will be discarded
     Please, verify this is what you really want

     Reading input from environ.in:
     * using ionic solvent mode
     * setting boundary derivatives method to SSCS default
     * setting electrolyte-boundary derivatives method to SSCS default

Environ Warning (1001): card EOF ignored

     K-points division:     npool     =       2
     R & G space division:  proc/nbgrp/npool/nimage =     256
     Subspace diagonalization in iterative solution of the eigenvalue problem:
     one sub-group per band group will be used

     Using Slab Decomposition

     bravais-lattice index     =           12
     lattice parameter (alat)  =      18.3607  a.u.
     unit-cell volume          =   35212.2554 (a.u.)^3
     number of atoms/cell      =           68
     number of atomic types    =            1
     number of electrons       =       204.00
     number of Kohn-Sham states=          153
     kinetic-energy cutoff     =      80.0000  Ry
     charge density cutoff     =     800.0000  Ry
     scf convergence threshold =      1.0E-06
     mixing beta               =       0.2000
     number of iterations used =            8  local-TF  mixing
     energy convergence thresh.=      1.0E-05
     force convergence thresh. =      3.9E-04
     Exchange-correlation= PBE
                           (   1   4   3   4   0   0   0)
     nstep                     =          999

                                  Environ Setup Summary

          O. Andreussi, I. Dabo and N. Marzari, J. Chem. Phys. 136, 064102 (2012)
          F. Nattino, M. Truscott, N. Marzari, and O. Andreussi, J. Chem. Phys. 150, 041722 (2019)

     in publications or presentations arising from this work.

     Parameters

     compensation onset threshold      =               0.1000E+00
     static permittivity               =                    89.90
     surface tension in input (dyn/cm) =                    37.30
     surface tension in internal units =               0.4792E-04

     Solvent Boundary

     solvent mode                      =                    ionic
     derivatives method                =                   lowmem
     electrolyte derivatives method    =                   lowmem
     numerical core for derivatives    =                      fft
     switching function adopted        =                     SCCS
     density limit for vacuum region   =               0.5000E-02
     density limit for bulk solvent    =               0.1000E-03
     soft-sphere radius mode           =                    bondi
     soft-sphere softness              =                     0.50
     alpha                             =                     1.32

     Electrostatic Setup

     electrostatic problem to solve    =                    modpb
     numerical solver adopted          =                   newton
     type of auxiliary density adopted =                     none
     numerical core for poisson        =                      fft
     adopting a nested solver scheme
     inner solver                      =                       cg
     inner core                        =                      fft
     type of pbc corrections           =                parabolic
     numerical core for corrections    =                      1da

     >>>>> Grand-Canonical SCF is activated <<<<<
     Initial Total Charge  =     0.000000 e
     Target Fermi Energy   =    -2.904000 eV
     Thr. of Fermi Energy  =     0.001000 eV
     Wave-shift of Kerker  =     0.400000 bohr^-1
     Wave-shift of Hartree =     1.500000 bohr^-1
     Mixing Rate of Fermi  =     0.050000

     celldm(1)=  18.360747  celldm(2)=   1.060660  celldm(3)=   5.518976
     celldm(4)=  -0.235702  celldm(5)=   0.000000  celldm(6)=   0.000000

     crystal axes: (cart. coord. in units of alat)
               a(1) = (   1.000000   0.000000   0.000000 )
               a(2) = (  -0.250000   1.030776   0.000000 )
               a(3) = (   0.000000   0.000000   5.518976 )

     reciprocal axes: (cart. coord. in units 2 pi/alat)
               b(1) = (  1.000000  0.242536 -0.000000 )
               b(2) = (  0.000000  0.970143  0.000000 )
               b(3) = (  0.000000 -0.000000  0.181193 )

     PseudoPot. # 1 for Li read from file:
     /work/e89/e89/ba3g18/Repos/Pseudopotentials/Pslibrary/Li.pbe-sl-kjpaw_psl.1.0.0.UPF
     MD5 check sum: 3f4d2cafebb47c6c3aa8ed472e6f074d
     Pseudo is Projector augmented-wave, Zval =  3.0
     Generated using 'atomic' code by A. Dal Corso  v.7.4
     Shape of augmentation charge: PSQ
     Using radial grid of 1017 points,  4 beta functions with:
                l(1) =   0
                l(2) =   0
                l(3) =   1
                l(4) =   1
     Q(r) pseudized with 0 coefficients

     atomic species   valence    mass     pseudopotential
     Li                3.00     6.94000     Li( 1.00)

     No symmetry found

                                    s                        frac. trans.

      isym =  1     identity

 cryst.   s( 1) = (     1          0          0      )
                  (     0          1          0      )
                  (     0          0          1      )

 cart.    s( 1) = (  1.0000000  0.0000000  0.0000000 )
                  (  0.0000000  1.0000000  0.0000000 )
                  (  0.0000000  0.0000000  1.0000000 )

     point group C_1 (1)
     there are  1 classes
     the character table:

       E
A      1.00

     the symmetry operations in each class and the name of the first element:

     E        1
          identity

   Cartesian axes

     site n.     atom                  positions (alat units)
         1        Li     tau(   1) = (  -0.0003981   0.0347345   2.0466680  )
         2        Li     tau(   2) = (   0.0002622   0.6056439   3.4294764  )
         3        Li     tau(   3) = (   0.2502525   0.7873289   3.2526099  )
         4        Li     tau(   4) = (   0.2503616   0.1912942   3.2918806  )
         5        Li     tau(   5) = (   0.0003129   0.3638415   3.1724788  )
         6        Li     tau(   6) = (   0.2501314   0.5512072   2.9935879  )
         7        Li     tau(   7) = (   0.2499030   0.9081047   2.6504712  )
         8        Li     tau(   8) = (   0.0002597   0.9682465   3.0934636  )
         9        Li     tau(   9) = (   0.0001454   0.1218465   2.9085766  )
        10        Li     tau(  10) = (   0.2499419   0.3065828   2.7258484  )
        11        Li     tau(  11) = (  -0.0001809   0.4832079   2.5664508  )
        12        Li     tau(  12) = (   0.2497779   0.6643800   2.3842792  )
        13        Li     tau(  13) = (   0.0000598   0.7255259   2.8296611  )
        14        Li     tau(  14) = (   0.2498388   0.0550794   2.5012977  )
        15        Li     tau(  15) = (  -0.0003767   0.2433722   2.3138895  )
        16        Li     tau(  16) = (   0.2497486   0.3986978   2.1184205  )
        17        Li     tau(  17) = (  -0.0002284   0.8531378   2.2352218  )
        18        Li     tau(  18) = (   0.0003708   0.0597990   3.2050857  )
        19        Li     tau(  19) = (   0.0002228   0.6695657   3.1346970  )
        20        Li     tau(  20) = (   0.2501806   0.8507376   2.9525255  )
        21        Li     tau(  21) = (   0.2501606   0.2480883   3.0176844  )
        22        Li     tau(  22) = (   0.0000959   0.4258410   2.8685052  )
        23        Li     tau(  23) = (   0.2499404   0.6084197   2.6893146  )
        24        Li     tau(  24) = (   0.2496863   0.9701039   2.3464978  )
        25        Li     tau(  25) = (   0.0000579   1.0273622   2.7931315  )
        26        Li     tau(  26) = (  -0.0001481   0.1813234   2.6103974  )
        27        Li     tau(  27) = (   0.2497406   0.3656982   2.4255145  )
        28        Li     tau(  28) = (  -0.0002517   0.5466179   2.2663670  )
        29        Li     tau(  29) = (   0.2497379   0.7282992   2.0894991  )
        30        Li     tau(  30) = (  -0.0001316   0.7827376   2.5253874  )
        31        Li     tau(  31) = (   0.2496385   0.1118765   2.2271063  )
        32        Li     tau(  32) = (   0.0004313   0.2684406   3.4723079  )
        33        Li     tau(  33) = (   0.2502291   0.4808089   3.2837531  )
        34        Li     tau(  34) = (   0.0002500   0.9352441   3.4005559  )
        35        Li     tau(  35) = (   0.4995569   0.0347268   2.0466687  )
        36        Li     tau(  36) = (   0.5002673   0.6056404   3.4294818  )
        37        Li     tau(  37) = (   0.7502588   0.7873301   3.2526096  )
        38        Li     tau(  38) = (   0.7503624   0.1912965   3.2918985  )
        39        Li     tau(  39) = (   0.5003106   0.3638413   3.1724781  )
        40        Li     tau(  40) = (   0.7501281   0.5512074   2.9935831  )
        41        Li     tau(  41) = (   0.7499065   0.9081064   2.6504719  )
        42        Li     tau(  42) = (   0.5002591   0.9682485   3.0934563  )
        43        Li     tau(  43) = (   0.5001480   0.1218463   2.9085788  )
        44        Li     tau(  44) = (   0.7499436   0.3065837   2.7258528  )
        45        Li     tau(  45) = (   0.4998178   0.4832078   2.5664500  )
        46        Li     tau(  46) = (   0.7497750   0.6643767   2.3842724  )
        47        Li     tau(  47) = (   0.5000612   0.7255260   2.8296665  )
        48        Li     tau(  48) = (   0.7498376   0.0550836   2.5012758  )
        49        Li     tau(  49) = (   0.4996319   0.2433704   2.3138902  )
        50        Li     tau(  50) = (   0.7497527   0.3987154   2.1184302  )
        51        Li     tau(  51) = (   0.4997706   0.8531340   2.2352302  )
        52        Li     tau(  52) = (   0.5003748   0.0597978   3.2050868  )
        53        Li     tau(  53) = (   0.5002241   0.6695689   3.1347036  )
        54        Li     tau(  54) = (   0.7501827   0.8507386   2.9525257  )
        55        Li     tau(  55) = (   0.7501622   0.2480886   3.0176941  )
        56        Li     tau(  56) = (   0.5000941   0.4258400   2.8685038  )
        57        Li     tau(  57) = (   0.7499387   0.6084201   2.6893101  )
        58        Li     tau(  58) = (   0.7496898   0.9701049   2.3464974  )
        59        Li     tau(  59) = (   0.5000560   1.0273635   2.7931193  )
        60        Li     tau(  60) = (   0.4998540   0.1813236   2.6103996  )
        61        Li     tau(  61) = (   0.7497410   0.3656983   2.4255177  )
        62        Li     tau(  62) = (   0.4997402   0.5466146   2.2663655  )
[...]
     atom   58 type  1   force =     0.00000000    0.00000000    0.00000000
     atom   59 type  1   force =     0.00000000    0.00000000    0.00000000
     atom   60 type  1   force =     0.00000000    0.00000000    0.00000000
     atom   61 type  1   force =     0.00000000    0.00000000    0.00000000
     atom   62 type  1   force =     0.00000000    0.00000000    0.00000000
     atom   63 type  1   force =     0.00000000    0.00000000    0.00000000
     atom   64 type  1   force =     0.00000000    0.00000000    0.00000000
     atom   65 type  1   force =     0.00000000    0.00000000    0.00000000
     atom   66 type  1   force =     0.00000000    0.00000000    0.00000000
     atom   67 type  1   force =     0.00000000    0.00000000    0.00000000
     atom   68 type  1   force =     0.00000000    0.00000000    0.00000000
     The Hubbard contrib.    to forces
     atom    1 type  1   force =     0.00000000    0.00000000    0.00000000
     atom    2 type  1   force =     0.00000000    0.00000000    0.00000000
     atom    3 type  1   force =     0.00000000    0.00000000    0.00000000
     atom    4 type  1   force =     0.00000000    0.00000000    0.00000000
     atom    5 type  1   force =     0.00000000    0.00000000    0.00000000
     atom    6 type  1   force =     0.00000000    0.00000000    0.00000000
     atom    7 type  1   force =     0.00000000    0.00000000    0.00000000
     atom    8 type  1   force =     0.00000000    0.00000000    0.00000000
     atom    9 type  1   force =     0.00000000    0.00000000    0.00000000
     atom   10 type  1   force =     0.00000000    0.00000000    0.00000000
     atom   11 type  1   force =     0.00000000    0.00000000    0.00000000
     atom   12 type  1   force =     0.00000000    0.00000000    0.00000000
     atom   13 type  1   force =     0.00000000    0.00000000    0.00000000
     atom   14 type  1   force =     0.00000000    0.00000000    0.00000000
     atom   15 type  1   force =     0.00000000    0.00000000    0.00000000
     atom   16 type  1   force =     0.00000000    0.00000000    0.00000000
     atom   17 type  1   force =     0.00000000    0.00000000    0.00000000
     atom   18 type  1   force =     0.00000000    0.00000000    0.00000000
     atom   19 type  1   force =     0.00000000    0.00000000    0.00000000
     atom   20 type  1   force =     0.00000000    0.00000000    0.00000000
     atom   21 type  1   force =     0.00000000    0.00000000    0.00000000
     atom   22 type  1   force =     0.00000000    0.00000000    0.00000000
     atom   23 type  1   force =     0.00000000    0.00000000    0.00000000
     atom   24 type  1   force =     0.00000000    0.00000000    0.00000000
     atom   25 type  1   force =     0.00000000    0.00000000    0.00000000
     atom   26 type  1   force =     0.00000000    0.00000000    0.00000000
     atom   27 type  1   force =     0.00000000    0.00000000    0.00000000
     atom   28 type  1   force =     0.00000000    0.00000000    0.00000000
     atom   29 type  1   force =     0.00000000    0.00000000    0.00000000
     atom   30 type  1   force =     0.00000000    0.00000000    0.00000000
     atom   31 type  1   force =     0.00000000    0.00000000    0.00000000
     atom   32 type  1   force =     0.00000000    0.00000000    0.00000000
     atom   33 type  1   force =     0.00000000    0.00000000    0.00000000
     atom   34 type  1   force =     0.00000000    0.00000000    0.00000000
     atom   35 type  1   force =     0.00000000    0.00000000    0.00000000
     atom   36 type  1   force =     0.00000000    0.00000000    0.00000000
     atom   37 type  1   force =     0.00000000    0.00000000    0.00000000
     atom   38 type  1   force =     0.00000000    0.00000000    0.00000000
     atom   39 type  1   force =     0.00000000    0.00000000    0.00000000
     atom   40 type  1   force =     0.00000000    0.00000000    0.00000000
     atom   41 type  1   force =     0.00000000    0.00000000    0.00000000
     atom   42 type  1   force =     0.00000000    0.00000000    0.00000000
     atom   43 type  1   force =     0.00000000    0.00000000    0.00000000
     atom   44 type  1   force =     0.00000000    0.00000000    0.00000000
     atom   45 type  1   force =     0.00000000    0.00000000    0.00000000
     atom   46 type  1   force =     0.00000000    0.00000000    0.00000000
     atom   47 type  1   force =     0.00000000    0.00000000    0.00000000
     atom   48 type  1   force =     0.00000000    0.00000000    0.00000000
     atom   49 type  1   force =     0.00000000    0.00000000    0.00000000
     atom   50 type  1   force =     0.00000000    0.00000000    0.00000000
     atom   51 type  1   force =     0.00000000    0.00000000    0.00000000
     atom   52 type  1   force =     0.00000000    0.00000000    0.00000000
     atom   53 type  1   force =     0.00000000    0.00000000    0.00000000
     atom   54 type  1   force =     0.00000000    0.00000000    0.00000000
     atom   55 type  1   force =     0.00000000    0.00000000    0.00000000
     atom   56 type  1   force =     0.00000000    0.00000000    0.00000000
     atom   57 type  1   force =     0.00000000    0.00000000    0.00000000
     atom   58 type  1   force =     0.00000000    0.00000000    0.00000000
     atom   59 type  1   force =     0.00000000    0.00000000    0.00000000
     atom   60 type  1   force =     0.00000000    0.00000000    0.00000000
     atom   61 type  1   force =     0.00000000    0.00000000    0.00000000
     atom   62 type  1   force =     0.00000000    0.00000000    0.00000000
     atom   63 type  1   force =     0.00000000    0.00000000    0.00000000
     atom   64 type  1   force =     0.00000000    0.00000000    0.00000000
     atom   65 type  1   force =     0.00000000    0.00000000    0.00000000
     atom   66 type  1   force =     0.00000000    0.00000000    0.00000000
     atom   67 type  1   force =     0.00000000    0.00000000    0.00000000
     atom   68 type  1   force =     0.00000000    0.00000000    0.00000000
     The SCF correction term to forces
     atom    1 type  1   force =    -0.00000004   -0.00000179    0.00000011
     atom    2 type  1   force =    -0.00000005    0.00000012    0.00000027
     atom    3 type  1   force =    -0.00000002   -0.00000006    0.00000274
     atom    4 type  1   force =    -0.00000000   -0.00000012    0.00000141
     atom    5 type  1   force =     0.00000001    0.00000002    0.00000081
     atom    6 type  1   force =    -0.00000000    0.00000008    0.00000113
     atom    7 type  1   force =    -0.00000000   -0.00000011   -0.00000021
     atom    8 type  1   force =    -0.00000001   -0.00000003    0.00000117
     atom    9 type  1   force =    -0.00000001   -0.00000005    0.00000086
     atom   10 type  1   force =    -0.00000001    0.00000010    0.00000013
     atom   11 type  1   force =    -0.00000001    0.00000006   -0.00000052
     atom   12 type  1   force =    -0.00000001    0.00000006   -0.00000109
     atom   13 type  1   force =    -0.00000000   -0.00000002    0.00000062
     atom   14 type  1   force =    -0.00000001    0.00000004   -0.00000095
     atom   15 type  1   force =    -0.00000002    0.00000003    0.00000021
     atom   16 type  1   force =    -0.00000002    0.00000085   -0.00000050
     atom   17 type  1   force =     0.00000000   -0.00000019    0.00000001
     atom   18 type  1   force =     0.00000001   -0.00000001   -0.00000007
     atom   19 type  1   force =    -0.00000000   -0.00000011    0.00000132
     atom   20 type  1   force =    -0.00000001   -0.00000009    0.00000100
     atom   21 type  1   force =    -0.00000001   -0.00000001    0.00000133
     atom   22 type  1   force =    -0.00000000    0.00000010    0.00000075
     atom   23 type  1   force =     0.00000000    0.00000000   -0.00000007
     atom   24 type  1   force =    -0.00000001    0.00000001   -0.00000067
     atom   25 type  1   force =    -0.00000000   -0.00000010    0.00000039
     atom   26 type  1   force =     0.00000000    0.00000006   -0.00000040
     atom   27 type  1   force =    -0.00000001    0.00000000   -0.00000088
     atom   28 type  1   force =     0.00000001    0.00000001   -0.00000268
     atom   29 type  1   force =    -0.00000009   -0.00000008   -0.00000038
     atom   30 type  1   force =    -0.00000002   -0.00000009   -0.00000071
     atom   31 type  1   force =    -0.00000001    0.00000007   -0.00000145
     atom   32 type  1   force =    -0.00000008    0.00000172   -0.00000014
     atom   33 type  1   force =     0.00000000    0.00000022   -0.00000003
     atom   34 type  1   force =    -0.00000000   -0.00000091    0.00000045
     atom   35 type  1   force =     0.00000004   -0.00000172    0.00000001
     atom   36 type  1   force =    -0.00000004    0.00000014    0.00000035
     atom   37 type  1   force =     0.00000000   -0.00000004    0.00000277
     atom   38 type  1   force =    -0.00000001   -0.00000010    0.00000146
     atom   39 type  1   force =     0.00000001    0.00000003    0.00000082
     atom   40 type  1   force =     0.00000002    0.00000009    0.00000113
     atom   41 type  1   force =     0.00000001   -0.00000010   -0.00000020
     atom   42 type  1   force =     0.00000001   -0.00000003    0.00000116
     atom   43 type  1   force =    -0.00000003   -0.00000005    0.00000087
     atom   44 type  1   force =     0.00000002    0.00000010    0.00000013
     atom   45 type  1   force =     0.00000000    0.00000006   -0.00000053
     atom   46 type  1   force =     0.00000001    0.00000007   -0.00000108
     atom   47 type  1   force =    -0.00000001   -0.00000002    0.00000061
     atom   48 type  1   force =    -0.00000000    0.00000004   -0.00000094
     atom   49 type  1   force =    -0.00000001    0.00000004    0.00000016
     atom   50 type  1   force =     0.00000002    0.00000088   -0.00000056
     atom   51 type  1   force =     0.00000001   -0.00000018   -0.00000013
     atom   52 type  1   force =     0.00000001   -0.00000003   -0.00000003
     atom   53 type  1   force =    -0.00000000   -0.00000009    0.00000132
     atom   54 type  1   force =     0.00000001   -0.00000008    0.00000098
     atom   55 type  1   force =     0.00000001   -0.00000001    0.00000134
     atom   56 type  1   force =    -0.00000001    0.00000010    0.00000073
     atom   57 type  1   force =     0.00000002    0.00000001   -0.00000006
     atom   58 type  1   force =     0.00000000    0.00000001   -0.00000065
     atom   59 type  1   force =     0.00000001   -0.00000010    0.00000042
     atom   60 type  1   force =     0.00000000    0.00000005   -0.00000040
     atom   61 type  1   force =     0.00000002   -0.00000000   -0.00000090
     atom   62 type  1   force =     0.00000001   -0.00000000   -0.00000268
     atom   63 type  1   force =    -0.00000011   -0.00000005   -0.00000037
     atom   64 type  1   force =    -0.00000001   -0.00000009   -0.00000070
     atom   65 type  1   force =    -0.00000004    0.00000011   -0.00000150
     atom   66 type  1   force =    -0.00000007    0.00000163   -0.00000020
     atom   67 type  1   force =     0.00000002    0.00000022   -0.00000003
     atom   68 type  1   force =     0.00000001   -0.00000094    0.00000041

     Total force =     0.002143     Total SCF correction =     0.000009
     Energy error            =      9.0E-06 Ry
     Gradient error          =      3.9E-04 Ry/Bohr

     bfgs converged in  23 scf cycles and  22 bfgs steps
     (criteria: energy <  1.0E-05 Ry, force <  3.9E-04 Ry/Bohr)

     End of BFGS Geometry Optimization

     Final energy             =   -1022.5410213755 Ry

     File ./Li/Lithium.bfgs deleted, as requested
Begin final coordinates

ATOMIC_POSITIONS (angstrom)
Li              -0.0037395662        0.3938973377       19.9722568061
Li               0.0024213766        5.8577191577       33.3042522218
Li               2.4311526866        7.6715226571       31.6625458514
Li               2.4325537655        1.8741476426       32.0032738169
Li               0.0026208767        3.5328893832       30.8243617363
Li               2.4302371536        5.3645945283       29.0814766882
Li               2.4283971801        8.8353629648       25.7347797736
Li               0.0023446541        9.4020376279       30.0678293081
Li               0.0014520967        1.1822730686       28.2665569800
Li               2.4283005834        2.9852395326       26.4618629318
Li              -0.0017217995        4.6849603738       24.9369600282
Li               2.4273507133        6.4614786823       23.1541108015
Li               0.0004695462        7.0422491584       27.5026042460
Li               2.4273207401        0.5228835372       24.3278456590
Li              -0.0032878558        2.3709406563       22.4586127845
Li               2.4271224964        3.8413238752       20.6002618295
Li              -0.0024010295        8.2559852609       21.6835715088
Li               0.0032256664        0.5747261073       31.1642668054
Li               0.0016717266        6.4992107926       30.4688204367
Li               2.4307425838        8.2757814213       28.6857883053
Li               2.4307231774        2.4226874408       29.2950954225
Li               0.0006075772        4.1253515554       27.8878953488
Li               2.4285479265        5.9184820297       26.1200741043
Li               2.4263921599        9.4277991606       22.7985775975
Li               0.0007124111        9.9754753667       27.1608420201
Li              -0.0014712320        1.7633276394       25.3561419475
Li               2.4266802760        3.5587328504       23.5550524969
Li              -0.0021181372        5.2892468595       21.9603795999
Li               2.4266088501        7.1029997664       20.3187709190
Li              -0.0012162224        7.5961398440       24.5413161724
Li               2.4254943588        1.0714894174       21.6197464118
Li               0.0041436190        2.5517504324       33.6508217942
Li               2.4314363003        4.7048228959       31.9393576607
Li               0.0018798720        9.1194051672       33.0227591359
Li               4.8537559713        0.3938216892       19.9722738027
Li               4.8605199680        5.8576747135       33.3042969438
Li               7.2892649281        7.6715261374       31.6625431360
Li               7.2906015567        1.8741845036       32.0034672088
Li               4.8606534804        3.5328925056       30.8243566555
Li               7.2882469772        5.3645945002       29.0814270801
Li               7.2864812843        8.8353723678       25.7347939660
Li               4.8603877704        9.4020626944       30.0677435580
Li               4.8595209182        1.1822724936       28.2665822024
Li               7.2863721485        2.9852571384       26.4619179349
Li               4.8563110782        4.6849621797       24.9369400288
Li               7.2853680474        6.4614367452       23.1540443436
Li               4.8585318899        7.0422560586       27.5026662220
Li               7.2853481062        0.5229263975       24.3275975133
Li               4.8548458033        2.3709129359       22.4586174246
Li               7.2852134316        3.8415377354       20.6003523091
Li               4.8556262261        8.2559289551       21.6836715738
Li               4.8613172654        0.5747208472       31.1642732622
Li               4.8597361028        6.4992555989       30.4688892645
Li               7.2888016777        8.2757836432       28.6857858167
Li               7.2887800475        2.4226901212       29.2951948682
Li               4.8586405805        4.1253507293       27.8878847371
Li               7.2865862393        5.9184821099       26.1200354155
Li               7.2844658745        9.4277989846       22.7985761709
Li               4.8587438861        9.9754847135       27.1607275911
Li               4.8565818327        1.7633263461       25.3561528951
Li               7.2847256020        3.5587291684       23.5550833109
Li               4.8558327435        5.2892145589       21.9603666184
Li               7.2845863662        7.1031045875       20.3187284270
Li               4.8568607024        7.5961495663       24.5413796091
Li               7.2835320495        1.0714231142       21.6193131547
Li               4.8619365373        2.5517127084       33.6508091666
Li               7.2894683208        4.7048429544       31.9392896116
Li               4.8599087246        9.1192843445       33.0226574407
End final coordinates

     Writing all to output data dir ./Li/Lithium.save/ :
     XML data file

     General routines

     Parallel routines

     PAW routines

     Environ routines

   This run was terminated on:   1:25: 5   3Jan2025

   JOB DONE.