     Program PWSCF v.7.4 starts on 24Jan2025 at  1:57:12

     Reading input from espresso.pwi
Warning: card &CELL ignored
Warning: card    PRESS_CONV_THR   = 0.1 ignored
Warning: card    CELL_DOFREE      = 'ALL' ignored
Warning: card / ignored
Warning: card &FCP ignored
Warning: card / ignored
Warning: card &RISM ignored
Warning: card / ignored

     Current dimensions of program PWSCF are:
     Max number of different atomic species (ntypx) = 10
     Max number of k-points (npk) =  40000
     Max angular momentum in pseudopotentials (lmaxx) =  4

     IMPORTANT: XC functional enforced from input :
     Exchange-correlation= PBE
                           (   1   4   3   4   0   0   0)
     Any further DFT definition will be discarded
     Please, verify this is what you really want

     Reading input from environ.in:
     * using ionic solvent mode
     * setting boundary derivatives method to SSCS default
     * setting electrolyte-boundary derivatives method to SSCS default

Environ Warning (1001): card EOF ignored

     Found identity + (  0.5000 -0.0000  0.0000) symmetry
     This is a supercell, fractional translations are disabled

     K-points division:     npool     =       2
     R & G space division:  proc/nbgrp/npool/nimage =     192
     Subspace diagonalization in iterative solution of the eigenvalue problem:
     a serial algorithm will be used

     Using Slab Decomposition

     bravais-lattice index     =           12
     lattice parameter (alat)  =      18.3607  a.u.
     unit-cell volume          =   23801.8584 (a.u.)^3
     number of atoms/cell      =           36
     number of atomic types    =            1
     number of electrons       =       108.00
     number of Kohn-Sham states=           81
     kinetic-energy cutoff     =      80.0000  Ry
     charge density cutoff     =     800.0000  Ry
     scf convergence threshold =      1.0E-06
     mixing beta               =       0.2000
     number of iterations used =            8  local-TF  mixing
     energy convergence thresh.=      1.0E-05
     force convergence thresh. =      3.9E-04
     Exchange-correlation= PBE
                           (   1   4   3   4   0   0   0)
     nstep                     =          999

                                  Environ Setup Summary

          O. Andreussi, I. Dabo and N. Marzari, J. Chem. Phys. 136, 064102 (2012)
          F. Nattino, M. Truscott, N. Marzari, and O. Andreussi, J. Chem. Phys. 150, 041722 (2019)

     in publications or presentations arising from this work.

     Parameters

     compensation onset threshold      =               0.1000E+00
     static permittivity               =                    89.90
     surface tension in input (dyn/cm) =                    37.30
     surface tension in internal units =               0.4792E-04

     Solvent Boundary

     solvent mode                      =                    ionic
     derivatives method                =                   lowmem
     electrolyte derivatives method    =                   lowmem
     numerical core for derivatives    =                      fft
     switching function adopted        =                     SCCS
     density limit for vacuum region   =               0.5000E-02
     density limit for bulk solvent    =               0.1000E-03
     soft-sphere radius mode           =                    bondi
     soft-sphere softness              =                     0.50
     alpha                             =                     1.32

     Electrostatic Setup

     electrostatic problem to solve    =                    modpb
     numerical solver adopted          =                   newton
     type of auxiliary density adopted =                     none
     numerical core for poisson        =                      fft
     adopting a nested solver scheme
     inner solver                      =                       cg
     inner core                        =                      fft
     type of pbc corrections           =                parabolic
     numerical core for corrections    =                      1da

     >>>>> Grand-Canonical SCF is activated <<<<<
     Initial Total Charge  =     0.000000 e
     Target Fermi Energy   =    -1.654000 eV
     Thr. of Fermi Energy  =     0.001000 eV
     Wave-shift of Kerker  =     0.400000 bohr^-1
     Wave-shift of Hartree =     1.500000 bohr^-1
     Mixing Rate of Fermi  =     0.050000

     celldm(1)=  18.360747  celldm(2)=   0.790569  celldm(3)=   5.127180
     celldm(4)=   0.316228  celldm(5)=   0.000000  celldm(6)=   0.000000

     crystal axes: (cart. coord. in units of alat)
               a(1) = (   1.000000   0.000000   0.000000 )
               a(2) = (   0.250000   0.750000   0.000000 )
               a(3) = (   0.000000   0.000000   5.127180 )

     reciprocal axes: (cart. coord. in units 2 pi/alat)
               b(1) = (  1.000000 -0.333333  0.000000 )
               b(2) = (  0.000000  1.333333  0.000000 )
               b(3) = (  0.000000  0.000000  0.195039 )

     PseudoPot. # 1 for Li read from file:
     /work/e89/e89/ba3g18/Repos/Pseudopotentials/Pslibrary/Li.pbe-sl-kjpaw_psl.1.0.0.UPF
     MD5 check sum: 3f4d2cafebb47c6c3aa8ed472e6f074d
     Pseudo is Projector augmented-wave, Zval =  3.0
     Generated using 'atomic' code by A. Dal Corso  v.7.4
     Shape of augmentation charge: PSQ
     Using radial grid of 1017 points,  4 beta functions with:
                l(1) =   0
                l(2) =   0
                l(3) =   1
                l(4) =   1
     Q(r) pseudized with 0 coefficients

     atomic species   valence    mass     pseudopotential
     Li                3.00     6.94000     Li( 1.00)

     No symmetry found

                                    s                        frac. trans.

      isym =  1     identity

 cryst.   s( 1) = (     1          0          0      )
                  (     0          1          0      )
                  (     0          0          1      )

 cart.    s( 1) = (  1.0000000  0.0000000  0.0000000 )
                  (  0.0000000  1.0000000  0.0000000 )
                  (  0.0000000  0.0000000  1.0000000 )

     point group C_1 (1)
     there are  1 classes
     the character table:

       E
A      1.00

     the symmetry operations in each class and the name of the first element:

     E        1
          identity

   Cartesian axes

     site n.     atom                  positions (alat units)
         1        Li     tau(   1) = (   0.0000117  -0.0074539   3.0508373  )
         2        Li     tau(   2) = (   0.2500086   0.4103500   2.1273234  )
         3        Li     tau(   3) = (   0.2500247   0.0948254   2.2455187  )
         4        Li     tau(   4) = (   0.5000204   0.4913808   2.3600159  )
         5        Li     tau(   5) = (   0.5000059   0.1697968   2.4653222  )
         6        Li     tau(   6) = (   0.2499960   0.5866275   2.5945649  )
         7        Li     tau(   7) = (   0.2499753   0.2466196   2.7061061  )
         8        Li     tau(   8) = (   0.4999827   0.6651762   2.8376432  )
         9        Li     tau(   9) = (   0.5000028   0.3365338   2.9667801  )
        10        Li     tau(  10) = (   0.2500172   0.6681563   2.2895353  )
        11        Li     tau(  11) = (   0.2500248   0.3367147   2.4210723  )
        12        Li     tau(  12) = (   0.5000034   0.7467050   2.5326170  )
        13        Li     tau(  13) = (   0.4999945   0.4135331   2.6618580  )
        14        Li     tau(  14) = (   0.4999795   0.0919526   2.7671668  )
        15        Li     tau(  15) = (   0.2499745   0.4885087   2.8816614  )
        16        Li     tau(  16) = (   0.2499925   0.1729840   2.9998499  )
        17        Li     tau(  17) = (   0.4999893   0.5907871   2.0763411  )
        18        Li     tau(  18) = (   0.4999976   0.2468040   2.1603979  )
        19        Li     tau(  19) = (   0.5000104  -0.0074554   3.0508384  )
        20        Li     tau(  20) = (   0.7500083   0.4103496   2.1273251  )
        21        Li     tau(  21) = (   0.7500253   0.0948254   2.2455199  )
        22        Li     tau(  22) = (   1.0000199   0.4913811   2.3600166  )
        23        Li     tau(  23) = (   1.0000063   0.1697971   2.4653218  )
        24        Li     tau(  24) = (   0.7499961   0.5866285   2.5945647  )
        25        Li     tau(  25) = (   0.7499754   0.2466192   2.7061078  )
        26        Li     tau(  26) = (   0.9999831   0.6651764   2.8376435  )
        27        Li     tau(  27) = (   1.0000018   0.3365315   2.9667800  )
        28        Li     tau(  28) = (   0.7500171   0.6681565   2.2895351  )
        29        Li     tau(  29) = (   0.7500245   0.3367152   2.4210745  )
        30        Li     tau(  30) = (   1.0000045   0.7467045   2.5326177  )
        31        Li     tau(  31) = (   0.9999934   0.4135333   2.6618582  )
        32        Li     tau(  32) = (   0.9999802   0.0919519   2.7671654  )
        33        Li     tau(  33) = (   0.7499756   0.4885085   2.8816604  )
        34        Li     tau(  34) = (   0.7499907   0.1729833   2.9998516  )
        35        Li     tau(  35) = (   0.9999887   0.5907877   2.0763421  )
        36        Li     tau(  36) = (   0.9999980   0.2468047   2.1603978  )

   Crystallographic axes

     site n.     atom                  positions (cryst. coord.)
         1        Li     tau(   1) = (  0.0024964 -0.0099386  0.5950322  )
         2        Li     tau(   2) = (  0.1132253  0.5471333  0.4149110  )
         3        Li     tau(   3) = (  0.2184162  0.1264338  0.4379637  )
         4        Li     tau(   4) = (  0.3362268  0.6551744  0.4602951  )
         5        Li     tau(   5) = (  0.4434070  0.2263957  0.4808340  )
         6        Li     tau(   6) = (  0.0544535  0.7821700  0.5060413  )
         7        Li     tau(   7) = (  0.1677688  0.3288261  0.5277962  )
         8        Li     tau(   8) = (  0.2782573  0.8869016  0.5534510  )
         9        Li     tau(   9) = (  0.3878248  0.4487117  0.5786378  )
        10        Li     tau(  10) = (  0.0272984  0.8908750  0.4465487  )
        11        Li     tau(  11) = (  0.1377865  0.4489529  0.4722035  )
        12        Li     tau(  12) = (  0.2511018  0.9956067  0.4939591  )
        13        Li     tau(  13) = (  0.3621501  0.5513775  0.5191661  )
        14        Li     tau(  14) = (  0.4693286  0.1226034  0.5397054  )
        15        Li     tau(  15) = (  0.0871382  0.6513449  0.5620363  )
        16        Li     tau(  16) = (  0.1923311  0.2306454  0.5850877  )
        17        Li     tau(  17) = (  0.3030602  0.7877161  0.4049675  )
        18        Li     tau(  18) = (  0.4177296  0.3290719  0.4213618  )
        19        Li     tau(  19) = (  0.5024955 -0.0099405  0.5950324  )
        20        Li     tau(  20) = (  0.6132251  0.5471328  0.4149113  )
        21        Li     tau(  21) = (  0.7184168  0.1264339  0.4379639  )
        22        Li     tau(  22) = (  0.8362262  0.6551748  0.4602953  )
        23        Li     tau(  23) = (  0.9434072  0.2263962  0.4808339  )
        24        Li     tau(  24) = (  0.5544532  0.7821714  0.5060413  )
[...]
     atom    6 type  1   force =    -0.00009365    0.04358379    0.72976455
     atom    7 type  1   force =     0.00030423   -0.00043053    3.40777879
     atom    8 type  1   force =     0.00022272   -0.15208727    6.59004211
     atom    9 type  1   force =    -0.00019359    0.33683886    9.54959985
     atom   10 type  1   force =    -0.00010947    0.15207792   -6.58993015
     atom   11 type  1   force =    -0.00014595    0.00030245   -3.40799412
     atom   12 type  1   force =     0.00013911   -0.04345749   -0.72969791
     atom   13 type  1   force =     0.00019585    0.07442712    2.38183655
     atom   14 type  1   force =     0.00024796   -0.07747127    4.73945482
     atom   15 type  1   force =     0.00017312    0.06755488    7.76536701
     atom   16 type  1   force =     0.00047458    0.07699651   10.10753376
     atom   17 type  1   force =     0.00029032    0.31699203  -10.82755126
     atom   18 type  1   force =     0.00042821   -0.33697414   -9.54965153
     atom   19 type  1   force =    -0.00019351   -0.31694191   10.82757729
     atom   20 type  1   force =    -0.00033423   -0.07707985  -10.10758843
     atom   21 type  1   force =    -0.00022854   -0.06740699   -7.76536778
     atom   22 type  1   force =    -0.00016743    0.07745733   -4.73941369
     atom   23 type  1   force =    -0.00015535   -0.07453615   -2.38191656
     atom   24 type  1   force =     0.00009098    0.04345252    0.72988833
     atom   25 type  1   force =     0.00007567   -0.00041391    3.40779972
     atom   26 type  1   force =    -0.00018036   -0.15184236    6.59007145
     atom   27 type  1   force =    -0.00043662    0.33701961    9.54957390
     atom   28 type  1   force =     0.00005522    0.15204715   -6.58989058
     atom   29 type  1   force =    -0.00023099    0.00027163   -3.40788588
     atom   30 type  1   force =    -0.00013635   -0.04331469   -0.72970403
     atom   31 type  1   force =    -0.00034555    0.07463271    2.38186878
     atom   32 type  1   force =    -0.00024316   -0.07741648    4.73936160
     atom   33 type  1   force =     0.00017579    0.06753380    7.76540791
     atom   34 type  1   force =     0.00017918    0.07698643   10.10755103
     atom   35 type  1   force =     0.00022223    0.31702107  -10.82754139
     atom   36 type  1   force =     0.00018217   -0.33694737   -9.54960823
     The local contribution  to forces
     atom    1 type  1   force =     0.00023280    0.31402334  -10.80465267
     atom    2 type  1   force =     0.00028521    0.05602355   10.01929410
     atom    3 type  1   force =     0.00006629    0.07507260    7.64709874
     atom    4 type  1   force =    -0.00020351   -0.07086961    4.66750775
     atom    5 type  1   force =    -0.00033061    0.07191202    2.34466058
     atom    6 type  1   force =     0.00006004   -0.04782811   -0.71621032
     atom    7 type  1   force =    -0.00028680    0.00475892   -3.35684640
     atom    8 type  1   force =    -0.00024172    0.13905499   -6.48626868
     atom    9 type  1   force =     0.00020226   -0.31445608   -9.44270445
     atom   10 type  1   force =     0.00012537   -0.13904765    6.48610982
     atom   11 type  1   force =     0.00012853   -0.00462958    3.35701623
     atom   12 type  1   force =    -0.00010601    0.04769957    0.71609940
     atom   13 type  1   force =    -0.00015810   -0.07170659   -2.34468253
     atom   14 type  1   force =    -0.00021172    0.07101221   -4.66756344
     atom   15 type  1   force =    -0.00014617   -0.07510601   -7.64721506
     atom   16 type  1   force =    -0.00045990   -0.05600628  -10.01916987
     atom   17 type  1   force =    -0.00020005   -0.31397891   10.80460071
     atom   18 type  1   force =    -0.00043966    0.31459277    9.44271385
     atom   19 type  1   force =     0.00010162    0.31393186  -10.80469774
     atom   20 type  1   force =     0.00031729    0.05609244   10.01918524
     atom   21 type  1   force =     0.00020056    0.07495926    7.64717039
     atom   22 type  1   force =     0.00013089   -0.07099765    4.66747618
     atom   23 type  1   force =     0.00011691    0.07181545    2.34471576
     atom   24 type  1   force =    -0.00012552   -0.04769699   -0.71633401
     atom   25 type  1   force =    -0.00005724    0.00474412   -3.35686632
     atom   26 type  1   force =     0.00016542    0.13880874   -6.48629378
     atom   27 type  1   force =     0.00045176   -0.31463468   -9.44267744
     atom   28 type  1   force =    -0.00003733   -0.13901714    6.48606853
     atom   29 type  1   force =     0.00021166   -0.00459918    3.35690593
     atom   30 type  1   force =     0.00017093    0.04755700    0.71610136
     atom   31 type  1   force =     0.00038328   -0.07190782   -2.34471406
     atom   32 type  1   force =     0.00028035    0.07095880   -4.66746815
     atom   33 type  1   force =    -0.00014301   -0.07508891   -7.64725491
     atom   34 type  1   force =    -0.00015783   -0.05599652  -10.01919143
     atom   35 type  1   force =    -0.00013171   -0.31401034   10.80459109
     atom   36 type  1   force =    -0.00019449    0.31456679    9.44266938
     The core correction contribution to forces
     atom    1 type  1   force =     0.00000000    0.00000000    0.00000000
     atom    2 type  1   force =     0.00000000    0.00000000    0.00000000
     atom    3 type  1   force =     0.00000000    0.00000000    0.00000000
     atom    4 type  1   force =     0.00000000    0.00000000    0.00000000
     atom    5 type  1   force =     0.00000000    0.00000000    0.00000000
     atom    6 type  1   force =     0.00000000    0.00000000    0.00000000
     atom    7 type  1   force =     0.00000000    0.00000000    0.00000000
     atom    8 type  1   force =     0.00000000    0.00000000    0.00000000
     atom    9 type  1   force =     0.00000000    0.00000000    0.00000000
     atom   10 type  1   force =     0.00000000    0.00000000    0.00000000
     atom   11 type  1   force =     0.00000000    0.00000000    0.00000000
     atom   12 type  1   force =     0.00000000    0.00000000    0.00000000
     atom   13 type  1   force =     0.00000000    0.00000000    0.00000000
     atom   14 type  1   force =     0.00000000    0.00000000    0.00000000
     atom   15 type  1   force =     0.00000000    0.00000000    0.00000000
     atom   16 type  1   force =     0.00000000    0.00000000    0.00000000
     atom   17 type  1   force =     0.00000000    0.00000000    0.00000000
     atom   18 type  1   force =     0.00000000    0.00000000    0.00000000
     atom   19 type  1   force =     0.00000000    0.00000000    0.00000000
     atom   20 type  1   force =     0.00000000    0.00000000    0.00000000
     atom   21 type  1   force =     0.00000000    0.00000000    0.00000000
     atom   22 type  1   force =     0.00000000    0.00000000    0.00000000
     atom   23 type  1   force =     0.00000000    0.00000000    0.00000000
     atom   24 type  1   force =     0.00000000    0.00000000    0.00000000
     atom   25 type  1   force =     0.00000000    0.00000000    0.00000000
     atom   26 type  1   force =     0.00000000    0.00000000    0.00000000
     atom   27 type  1   force =     0.00000000    0.00000000    0.00000000
     atom   28 type  1   force =     0.00000000    0.00000000    0.00000000
     atom   29 type  1   force =     0.00000000    0.00000000    0.00000000
     atom   30 type  1   force =     0.00000000    0.00000000    0.00000000
     atom   31 type  1   force =     0.00000000    0.00000000    0.00000000
     atom   32 type  1   force =     0.00000000    0.00000000    0.00000000
     atom   33 type  1   force =     0.00000000    0.00000000    0.00000000
     atom   34 type  1   force =     0.00000000    0.00000000    0.00000000
     atom   35 type  1   force =     0.00000000    0.00000000    0.00000000
     atom   36 type  1   force =     0.00000000    0.00000000    0.00000000
     The Hubbard contrib.    to forces
     atom    1 type  1   force =     0.00000000    0.00000000    0.00000000
     atom    2 type  1   force =     0.00000000    0.00000000    0.00000000
     atom    3 type  1   force =     0.00000000    0.00000000    0.00000000
     atom    4 type  1   force =     0.00000000    0.00000000    0.00000000
     atom    5 type  1   force =     0.00000000    0.00000000    0.00000000
     atom    6 type  1   force =     0.00000000    0.00000000    0.00000000
     atom    7 type  1   force =     0.00000000    0.00000000    0.00000000
     atom    8 type  1   force =     0.00000000    0.00000000    0.00000000
     atom    9 type  1   force =     0.00000000    0.00000000    0.00000000
     atom   10 type  1   force =     0.00000000    0.00000000    0.00000000
     atom   11 type  1   force =     0.00000000    0.00000000    0.00000000
     atom   12 type  1   force =     0.00000000    0.00000000    0.00000000
     atom   13 type  1   force =     0.00000000    0.00000000    0.00000000
     atom   14 type  1   force =     0.00000000    0.00000000    0.00000000
     atom   15 type  1   force =     0.00000000    0.00000000    0.00000000
     atom   16 type  1   force =     0.00000000    0.00000000    0.00000000
     atom   17 type  1   force =     0.00000000    0.00000000    0.00000000
     atom   18 type  1   force =     0.00000000    0.00000000    0.00000000
     atom   19 type  1   force =     0.00000000    0.00000000    0.00000000
     atom   20 type  1   force =     0.00000000    0.00000000    0.00000000
     atom   21 type  1   force =     0.00000000    0.00000000    0.00000000
     atom   22 type  1   force =     0.00000000    0.00000000    0.00000000
     atom   23 type  1   force =     0.00000000    0.00000000    0.00000000
     atom   24 type  1   force =     0.00000000    0.00000000    0.00000000
     atom   25 type  1   force =     0.00000000    0.00000000    0.00000000
     atom   26 type  1   force =     0.00000000    0.00000000    0.00000000
     atom   27 type  1   force =     0.00000000    0.00000000    0.00000000
     atom   28 type  1   force =     0.00000000    0.00000000    0.00000000
     atom   29 type  1   force =     0.00000000    0.00000000    0.00000000
     atom   30 type  1   force =     0.00000000    0.00000000    0.00000000
     atom   31 type  1   force =     0.00000000    0.00000000    0.00000000
     atom   32 type  1   force =     0.00000000    0.00000000    0.00000000
     atom   33 type  1   force =     0.00000000    0.00000000    0.00000000
     atom   34 type  1   force =     0.00000000    0.00000000    0.00000000
     atom   35 type  1   force =     0.00000000    0.00000000    0.00000000
     atom   36 type  1   force =     0.00000000    0.00000000    0.00000000
     The SCF correction term to forces
     atom    1 type  1   force =    -0.00000002    0.00000006   -0.00000093
     atom    2 type  1   force =    -0.00000001    0.00000098    0.00000001
     atom    3 type  1   force =    -0.00000003    0.00000006    0.00000136
     atom    4 type  1   force =    -0.00000003    0.00000007   -0.00000018
     atom    5 type  1   force =    -0.00000003   -0.00000001   -0.00000007
     atom    6 type  1   force =     0.00000002   -0.00000001    0.00000003
     atom    7 type  1   force =    -0.00000000    0.00000002   -0.00000012
     atom    8 type  1   force =    -0.00000003    0.00000003   -0.00000031
     atom    9 type  1   force =    -0.00000005   -0.00000033    0.00000123
     atom   10 type  1   force =     0.00000002   -0.00000001    0.00000026
     atom   11 type  1   force =    -0.00000001   -0.00000001    0.00000002
     atom   12 type  1   force =    -0.00000004    0.00000002   -0.00000011
     atom   13 type  1   force =    -0.00000003    0.00000006   -0.00000001
     atom   14 type  1   force =    -0.00000005   -0.00000004    0.00000014
     atom   15 type  1   force =     0.00000000   -0.00000003   -0.00000140
     atom   16 type  1   force =    -0.00000000   -0.00000098   -0.00000002
     atom   17 type  1   force =    -0.00000000   -0.00000002    0.00000086
     atom   18 type  1   force =     0.00000000    0.00000034   -0.00000129
     atom   19 type  1   force =    -0.00000002    0.00000006   -0.00000086
     atom   20 type  1   force =    -0.00000001    0.00000098   -0.00000000
     atom   21 type  1   force =    -0.00000001    0.00000004    0.00000128
     atom   22 type  1   force =     0.00000004    0.00000003   -0.00000023
     atom   23 type  1   force =     0.00000004   -0.00000005   -0.00000005
     atom   24 type  1   force =    -0.00000003    0.00000002    0.00000003
     atom   25 type  1   force =     0.00000003    0.00000000   -0.00000004
     atom   26 type  1   force =     0.00000001    0.00000003   -0.00000030
     atom   27 type  1   force =    -0.00000001   -0.00000033    0.00000127
     atom   28 type  1   force =     0.00000002   -0.00000002    0.00000024
     atom   29 type  1   force =    -0.00000001   -0.00000002   -0.00000004
     atom   30 type  1   force =     0.00000005   -0.00000000   -0.00000012
     atom   31 type  1   force =     0.00000004    0.00000002    0.00000000
     atom   32 type  1   force =     0.00000003   -0.00000008    0.00000012
     atom   33 type  1   force =     0.00000002   -0.00000003   -0.00000134
     atom   34 type  1   force =     0.00000001   -0.00000099   -0.00000003
     atom   35 type  1   force =     0.00000001   -0.00000003    0.00000081
     atom   36 type  1   force =     0.00000004    0.00000032   -0.00000129

     Total force =     0.001287     Total SCF correction =     0.000005
     Energy error            =      3.1E-06 Ry
     Gradient error          =      3.9E-04 Ry/Bohr

     bfgs converged in  18 scf cycles and  17 bfgs steps
     (criteria: energy <  1.0E-05 Ry, force <  3.9E-04 Ry/Bohr)

     End of BFGS Geometry Optimization

     Final energy             =    -541.5345336787 Ry

     File ./Li/Lithium.bfgs deleted, as requested
Begin final coordinates

ATOMIC_POSITIONS (angstrom)
Li               0.0009627614       -0.0484922649       29.6096917428
Li               2.4287152977        3.9899671563       20.6537981624
Li               2.4291018759        0.9054068851       21.8276005325
Li               4.8584577769        4.7678991596       22.9510363206
Li               4.8581972270        1.6544102219       23.9499445200
Li               2.4290397476        5.6923878990       25.2020398753
Li               2.4284049695        2.4023862948       26.3028304319
Li               4.8579540871        6.4776415843       27.5451242408
Li               4.8584213015        3.2629648770       28.8233952060
Li               2.4290750343        6.4771463713       22.2710671460
Li               2.4295866433        3.2654121532       23.5132321151
Li               4.8580313374        7.2623163967       24.6141068442
Li               4.8577293756        4.0134601837       25.8661390839
Li               4.8574753974        0.8998775564       26.8650861158
Li               2.4289102537        4.7622772485       27.9885375601
Li               2.4292540065        1.6777797365       29.1622334516
Li               4.8571011727        5.7162451504       20.2064290207
Li               4.8575615276        2.4048017324       20.9927069828
Li               4.8589459585       -0.0485425949       29.6098688538
Li               7.2867794678        3.9899728642       20.6537989919
Li               7.2871692796        0.9053656869       21.8275137409
Li               9.7166131462        4.7678785573       22.9510317030
Li               9.7164026318        1.6543159912       23.9499256304
Li               7.2870565561        5.6924465242       25.2020710299
Li               7.2865071968        2.4023576658       26.3028339901
Li               9.7161411414        6.4775439981       27.5451639025
Li               9.7165482887        3.2628444201       28.8233561306
Li               7.2870504644        6.4771479423       22.2710310772
Li               7.2877024142        3.2654131575       23.5132456511
Li               9.7161344410        7.2622898881       24.6140827220
Li               9.7159735643        4.0133375600       25.8661865015
Li               9.7157237709        0.8998392392       26.8650964654
Li               7.2869654553        4.7622944258       27.9886422587
Li               7.2873945703        1.6777952505       29.1623614600
Li               9.7151477689        5.7162184698       20.2064130228
Li               9.7157234458        2.4047968200       20.9927614731
End final coordinates

     Writing all to output data dir ./Li/Lithium.save/ :
     XML data file

     General routines

     Parallel routines

     PAW routines

     Environ routines

   This run was terminated on:   6: 9:56  24Jan2025

   JOB DONE.