     Program PWSCF v.7.4 starts on 23Jan2025 at  0:35:55

     Reading input from espresso.pwi
Warning: card &CELL ignored
Warning: card    PRESS_CONV_THR   = 0.1 ignored
Warning: card    CELL_DOFREE      = 'ALL' ignored
Warning: card / ignored
Warning: card &FCP ignored
Warning: card / ignored
Warning: card &RISM ignored
Warning: card / ignored

     Current dimensions of program PWSCF are:
     Max number of different atomic species (ntypx) = 10
     Max number of k-points (npk) =  40000
     Max angular momentum in pseudopotentials (lmaxx) =  4

     IMPORTANT: XC functional enforced from input :
     Exchange-correlation= PBE
                           (   1   4   3   4   0   0   0)
     Any further DFT definition will be discarded
     Please, verify this is what you really want

     Message from routine setup:
     using ibrav=0 with symmetry is DISCOURAGED, use correct ibrav instead

     K-points division:     npool     =       3
     R & G space division:  proc/nbgrp/npool/nimage =     128
     Subspace diagonalization in iterative solution of the eigenvalue problem:
     a serial algorithm will be used

     Using Slab Decomposition

     bravais-lattice index     =            0
     lattice parameter (alat)  =      12.9830  a.u.
     unit-cell volume          =   10941.9842 (a.u.)^3
     number of atoms/cell      =           20
     number of atomic types    =            1
     number of electrons       =        60.00
     number of Kohn-Sham states=           45
     kinetic-energy cutoff     =      80.0000  Ry
     charge density cutoff     =     800.0000  Ry
     scf convergence threshold =      1.0E-06
     mixing beta               =       0.2000
     number of iterations used =            8  local-TF  mixing
     energy convergence thresh.=      1.0E-05
     force convergence thresh. =      3.9E-04
     Exchange-correlation= PBE
                           (   1   4   3   4   0   0   0)
     nstep                     =           50

     celldm(1)=  12.983009  celldm(2)=   0.000000  celldm(3)=   0.000000
     celldm(4)=   0.000000  celldm(5)=   0.000000  celldm(6)=   0.000000

     crystal axes: (cart. coord. in units of alat)
               a(1) = (   1.000000   0.000000   0.000000 )
               a(2) = (   0.000000   1.118034   0.000000 )
               a(3) = (   0.000000   0.000000   4.472136 )

     reciprocal axes: (cart. coord. in units 2 pi/alat)
               b(1) = (  1.000000  0.000000  0.000000 )
               b(2) = (  0.000000  0.894427  0.000000 )
               b(3) = (  0.000000  0.000000  0.223607 )

     PseudoPot. # 1 for Li read from file:
     /iridisfs/home/ba3g18/Repos/Pseudopotentials/pslibrary.1.0.0/pbe/PSEUDOPOTENTIALS/Li.pbe-sl-kjpaw_psl.1.0.0.UPF
     MD5 check sum: 3f4d2cafebb47c6c3aa8ed472e6f074d
     Pseudo is Projector augmented-wave, Zval =  3.0
     Generated using 'atomic' code by A. Dal Corso  v.7.4
     Shape of augmentation charge: PSQ
     Using radial grid of 1017 points,  4 beta functions with:
                l(1) =   0
                l(2) =   0
                l(3) =   1
                l(4) =   1
     Q(r) pseudized with 0 coefficients

     atomic species   valence    mass     pseudopotential
     Li                3.00     6.94000     Li( 1.00)

      2 Sym. Ops. (no inversion) found

   Cartesian axes

     site n.     atom                  positions (alat units)
         1        Li     tau(   1) = (  -0.0000000   0.4606569   2.5126330  )
         2        Li     tau(   2) = (  -0.0000000   0.8915059   2.2952865  )
         3        Li     tau(   3) = (  -0.0000000   0.2236044   2.0729036  )
         4        Li     tau(   4) = (  -0.0000000   0.6310947   1.8385020  )
         5        Li     tau(   5) = (  -0.0000000   0.0757061   2.7408355  )
         6        Li     tau(   6) = (   0.2500124   0.5619261   2.1768595  )
         7        Li     tau(   7) = (   0.2499845   0.9927905   1.9595021  )
         8        Li     tau(   8) = (   0.2499974   0.2597001   1.7312919  )
         9        Li     tau(   9) = (   0.2500100   0.8223390   2.6336492  )
        10        Li     tau(  10) = (   0.2500033   0.1118106   2.3992374  )
        11        Li     tau(  11) = (   0.5000000   0.4606522   2.5126373  )
        12        Li     tau(  12) = (   0.5000000   0.8915216   2.2952668  )
        13        Li     tau(  13) = (   0.5000000   0.2235931   2.0728885  )
        14        Li     tau(  14) = (   0.5000000   0.6311193   1.8384752  )
        15        Li     tau(  15) = (   0.5000000   0.0757188   2.7408496  )
        16        Li     tau(  16) = (   0.7499876   0.5619261   2.1768595  )
        17        Li     tau(  17) = (   0.7500155   0.9927905   1.9595021  )
        18        Li     tau(  18) = (   0.7500025   0.2597001   1.7312919  )
        19        Li     tau(  19) = (   0.7499900   0.8223390   2.6336492  )
        20        Li     tau(  20) = (   0.7499967   0.1118106   2.3992374  )

     number of k points=    30  Marzari-Vanderbilt smearing, width (Ry)=  0.0100
                       cart. coord. in units 2pi/alat
        k(    1) = (   0.0000000   0.0000000   0.0000000), wk =   0.0222222
        k(    2) = (   0.0000000   0.0993808   0.0000000), wk =   0.0444444
        k(    3) = (   0.0000000   0.1987616   0.0000000), wk =   0.0444444
        k(    4) = (   0.0000000   0.2981424   0.0000000), wk =   0.0444444
        k(    5) = (   0.0000000   0.3975232   0.0000000), wk =   0.0444444
        k(    6) = (   0.1000000   0.0000000   0.0000000), wk =   0.0444444
        k(    7) = (   0.1000000   0.0993808   0.0000000), wk =   0.0888889
        k(    8) = (   0.1000000   0.1987616   0.0000000), wk =   0.0888889
        k(    9) = (   0.1000000   0.2981424   0.0000000), wk =   0.0888889
        k(   10) = (   0.1000000   0.3975232   0.0000000), wk =   0.0888889
        k(   11) = (   0.2000000   0.0000000   0.0000000), wk =   0.0444444
        k(   12) = (   0.2000000   0.0993808   0.0000000), wk =   0.0888889
        k(   13) = (   0.2000000   0.1987616   0.0000000), wk =   0.0888889
        k(   14) = (   0.2000000   0.2981424   0.0000000), wk =   0.0888889
        k(   15) = (   0.2000000   0.3975232   0.0000000), wk =   0.0888889
        k(   16) = (   0.3000000   0.0000000   0.0000000), wk =   0.0444444
        k(   17) = (   0.3000000   0.0993808   0.0000000), wk =   0.0888889
        k(   18) = (   0.3000000   0.1987616   0.0000000), wk =   0.0888889
        k(   19) = (   0.3000000   0.2981424   0.0000000), wk =   0.0888889
        k(   20) = (   0.3000000   0.3975232   0.0000000), wk =   0.0888889
        k(   21) = (   0.4000000   0.0000000   0.0000000), wk =   0.0444444
        k(   22) = (   0.4000000   0.0993808   0.0000000), wk =   0.0888889
        k(   23) = (   0.4000000   0.1987616   0.0000000), wk =   0.0888889
        k(   24) = (   0.4000000   0.2981424   0.0000000), wk =   0.0888889
        k(   25) = (   0.4000000   0.3975232   0.0000000), wk =   0.0888889
        k(   26) = (  -0.5000000   0.0000000   0.0000000), wk =   0.0222222
        k(   27) = (  -0.5000000   0.0993808   0.0000000), wk =   0.0444444
        k(   28) = (  -0.5000000   0.1987616   0.0000000), wk =   0.0444444
        k(   29) = (  -0.5000000   0.2981424   0.0000000), wk =   0.0444444
        k(   30) = (  -0.5000000   0.3975232   0.0000000), wk =   0.0444444

     Initial potential from superposition of free atoms

     starting charge      59.9078, renormalised to      60.0000

     negative rho (up, down):  1.854E-03 0.000E+00
     Starting wfcs are  100 randomized atomic wfcs
     Checking if some PAW data can be deallocated...

     Self-consistent Calculation

     iteration #  1     ecut=    80.00 Ry     beta= 0.20
     Davidson diagonalization with overlap
     ethr =  1.00E-02,  avg # of iterations =  3.3

     negative rho (up, down):  1.132E-04 0.000E+00

     total energy              =    -300.82087634 Ry
     estimated scf accuracy    <       2.07900275 Ry

[...]

     iteration # 12     ecut=    80.00 Ry     beta= 0.20
     Davidson diagonalization with overlap
     c_bands:  1 eigenvalues not converged
     c_bands:  1 eigenvalues not converged
     ethr =  1.18E-05,  avg # of iterations = 10.6

[...]

     iteration # 18     ecut=    80.00 Ry     beta= 0.20
     Davidson diagonalization with overlap
     c_bands:  1 eigenvalues not converged
     ethr =  9.51E-09,  avg # of iterations =  8.0

[...]

     total energy              =    -300.63944627 Ry
     estimated scf accuracy    <       0.00000203 Ry

     iteration # 19     ecut=    80.00 Ry     beta= 0.20
     Davidson diagonalization with overlap
     ethr =  3.39E-09,  avg # of iterations =  3.7

     negative rho (up, down):  1.742E-04 0.000E+00

     End of self-consistent calculation

          k = 0.0000 0.0000 0.0000 (132445 PWs)   bands (ev):

   -49.3071 -49.3070 -49.3057 -49.3056 -48.9724 -48.9724 -48.9709 -48.9709
   -48.7116 -48.7115 -48.7101 -48.7100 -48.4289 -48.4228 -48.4228 -48.4202
   -48.3789 -48.3730 -48.3730 -48.3693  -5.1787  -4.3000  -3.3002  -3.2469
    -3.0512  -2.7760  -2.7759  -2.3351  -2.2070  -1.9633  -1.9633  -1.7149
    -1.3467  -1.3467  -1.0650  -1.0650  -1.0130  -0.8368  -0.8145  -0.8145
    -0.4720   0.3489   0.7264   0.7488   0.9817

[...]

          k = 0.4000 0.3975 0.0000 (132165 PWs)   bands (ev):

[...]

          k =-0.5000 0.0000 0.0000 (132264 PWs)   bands (ev):

[...]

          k =-0.5000 0.3975 0.0000 (132134 PWs)   bands (ev):

   -49.3064 -49.3064 -49.3064 -49.3063 -48.9717 -48.9716 -48.9716 -48.9716
   -48.7108 -48.7108 -48.7108 -48.7108 -48.4267 -48.4267 -48.4207 -48.4207
   -48.3769 -48.3769 -48.3702 -48.3702  -4.2132  -4.2132  -4.0071  -4.0070
    -3.3110  -3.3109  -3.0614  -3.0613  -2.0277  -2.0276  -1.6169  -1.6169
    -0.8867  -0.8867  -0.7000  -0.7000  -0.5703  -0.5702  -0.2274  -0.2273
     0.4171   0.4171   0.5633   0.5634   1.1470

     the Fermi energy is    -1.8855 ev

!    total energy              =    -300.63944485 Ry
     total all-electron energy =      -300.639607 Ry
     estimated scf accuracy    <       0.00000030 Ry
     smearing contrib. (-TS)   =      -0.00027667 Ry
     internal energy E=F+TS    =    -300.63916818 Ry

     The total energy is F=E-TS. E is the sum of the following terms:
     one-electron contribution =   -1514.14423316 Ry
     hartree contribution      =     726.06011588 Ry
     xc contribution           =     -71.50729173 Ry
     ewald contribution        =     557.18846280 Ry
     one-center paw contrib.   =       1.76377802 Ry

     convergence has been achieved in  19 iterations

     Forces acting on atoms (cartesian axes, Ry/au):

     atom    1 type  1   force =     0.00000000   -0.00005183   -0.00015972
     atom    2 type  1   force =     0.00000000    0.00001514   -0.00009686
     atom    3 type  1   force =     0.00000000   -0.00006267    0.00007863
     atom    4 type  1   force =     0.00000000   -0.00002219    0.00011760
     atom    5 type  1   force =     0.00000000   -0.00005966   -0.00014140
     atom    6 type  1   force =    -0.00000381   -0.00001508    0.00010006
     atom    7 type  1   force =     0.00000256    0.00004916    0.00015681
     atom    8 type  1   force =     0.00000033    0.00006188    0.00013719
     atom    9 type  1   force =     0.00000010    0.00002159   -0.00012065
     atom   10 type  1   force =    -0.00000096    0.00006389   -0.00007680
     atom   11 type  1   force =     0.00000000   -0.00005105   -0.00015646
     atom   12 type  1   force =     0.00000000    0.00001018   -0.00009804
     atom   13 type  1   force =     0.00000000   -0.00005997    0.00008005
     atom   14 type  1   force =     0.00000000   -0.00002006    0.00012176
     atom   15 type  1   force =     0.00000000   -0.00006077   -0.00013878
     atom   16 type  1   force =     0.00000381   -0.00001508    0.00010006
     atom   17 type  1   force =    -0.00000256    0.00004916    0.00015681
     atom   18 type  1   force =    -0.00000033    0.00006188    0.00013719
     atom   19 type  1   force =    -0.00000010    0.00002159   -0.00012065
     atom   20 type  1   force =     0.00000096    0.00006389   -0.00007680

     Total force =     0.000584     Total SCF correction =     0.000495
     SCF correction compared to forces is large: reduce conv_thr to get better values

     BFGS Geometry Optimization
     Energy error            =      3.4E-07 Ry
     Gradient error          =      1.6E-04 Ry/Bohr

     bfgs converged in   1 scf cycles and   0 bfgs steps
     (criteria: energy <  1.0E-05 Ry, force <  3.9E-04 Ry/Bohr)

     End of BFGS Geometry Optimization

     Final energy             =    -300.6394448498 Ry
Begin final coordinates

ATOMIC_POSITIONS (angstrom)
Li              -0.0000000600        3.1648570700       17.2625739200
Li              -0.0000000600        6.1249244200       15.7693355600
Li              -0.0000000500        1.5362319100       14.2414956700
Li              -0.0000000700        4.3358175900       12.6310834900
Li              -0.0000000700        0.5201248400       18.8303966000
Li               1.7176630400        3.8606076100       14.9557051500
Li               1.7174717200        6.8207812400       13.4623917800
Li               1.7175605900        1.7842207600       11.8945160700
Li               1.7176470000        5.6497258900       18.0939930800
Li               1.7176005700        0.7681738900       16.4835105200
Li               3.4351561700        3.1648244300       17.2626036800
Li               3.4351561700        6.1250321000       15.7692003200
Li               3.4351561500        1.5361542900       14.2413915000
Li               3.4351561600        4.3359867600       12.6308989800
Li               3.4351561800        0.5202117100       18.8304933400
Li               5.1526492900        3.8606076000       14.9557051400
Li               5.1528406200        6.8207812400       13.4623917900
Li               5.1527517400        1.7842207500       11.8945160900
Li               5.1526653500        5.6497258900       18.0939930700
Li               5.1527117700        0.7681738900       16.4835105000
End final coordinates

     Message from routine punch:
     Nothing written, as per user request (disk_io='none')

     General routines

     Parallel routines

   This run was terminated on:   0:36:50  23Jan2025

   JOB DONE.