     Program PWSCF v.7.4 starts on  3Jan2025 at 12: 0: 7

     Reading input from espresso.pwi
Warning: card &CELL ignored
Warning: card    PRESS_CONV_THR   = 0.1 ignored
Warning: card    CELL_DOFREE      = 'ALL' ignored
Warning: card / ignored
Warning: card &FCP ignored
Warning: card / ignored
Warning: card &RISM ignored
Warning: card / ignored

     Current dimensions of program PWSCF are:
     Max number of different atomic species (ntypx) = 10
     Max number of k-points (npk) =  40000
     Max angular momentum in pseudopotentials (lmaxx) =  4

     IMPORTANT: XC functional enforced from input :
     Exchange-correlation= PBE
                           (   1   4   3   4   0   0   0)
     Any further DFT definition will be discarded
     Please, verify this is what you really want

     Reading input from environ.in:
     * using ionic solvent mode
     * setting boundary derivatives method to SSCS default
     * setting electrolyte-boundary derivatives method to SSCS default

Environ Warning (1001): card EOF ignored

     K-points division:     npool     =       2
     R & G space division:  proc/nbgrp/npool/nimage =     256
     Subspace diagonalization in iterative solution of the eigenvalue problem:
     a serial algorithm will be used

     Using Slab Decomposition

     bravais-lattice index     =           12
     lattice parameter (alat)  =      11.2436  a.u.
     unit-cell volume          =   15431.5264 (a.u.)^3
     number of atoms/cell      =           28
     number of atomic types    =            1
     number of electrons       =        84.00
     number of Kohn-Sham states=           63
     kinetic-energy cutoff     =      80.0000  Ry
     charge density cutoff     =     800.0000  Ry
     scf convergence threshold =      1.0E-06
     mixing beta               =       0.2000
     number of iterations used =            8  local-TF  mixing
     energy convergence thresh.=      1.0E-05
     force convergence thresh. =      3.9E-04
     Exchange-correlation= PBE
                           (   1   4   3   4   0   0   0)
     nstep                     =          999

                                  Environ Setup Summary

          O. Andreussi, I. Dabo and N. Marzari, J. Chem. Phys. 136, 064102 (2012)
          F. Nattino, M. Truscott, N. Marzari, and O. Andreussi, J. Chem. Phys. 150, 041722 (2019)

     in publications or presentations arising from this work.

     Parameters

     compensation onset threshold      =               0.1000E+00
     static permittivity               =                    89.90
     surface tension in input (dyn/cm) =                    37.30
     surface tension in internal units =               0.4792E-04

     Solvent Boundary

     solvent mode                      =                    ionic
     derivatives method                =                   lowmem
     electrolyte derivatives method    =                   lowmem
     numerical core for derivatives    =                      fft
     switching function adopted        =                     SCCS
     density limit for vacuum region   =               0.5000E-02
     density limit for bulk solvent    =               0.1000E-03
     soft-sphere radius mode           =                    bondi
     soft-sphere softness              =                     0.50
     alpha                             =                     1.32

     Electrostatic Setup

     electrostatic problem to solve    =                    modpb
     numerical solver adopted          =                   newton
     type of auxiliary density adopted =                     none
     numerical core for poisson        =                      fft
     adopting a nested solver scheme
     inner solver                      =                       cg
     inner core                        =                      fft
     type of pbc corrections           =                parabolic
     numerical core for corrections    =                      1da

     >>>>> Grand-Canonical SCF is activated <<<<<
     Initial Total Charge  =     0.000000 e
     Target Fermi Energy   =    -2.404000 eV
     Thr. of Fermi Energy  =     0.001000 eV
     Wave-shift of Kerker  =     0.400000 bohr^-1
     Wave-shift of Hartree =     1.500000 bohr^-1
     Mixing Rate of Fermi  =     0.050000

     celldm(1)=  11.243615  celldm(2)=   1.258306  celldm(3)=   8.704589
     celldm(4)=  -0.132454  celldm(5)=   0.000000  celldm(6)=   0.000000

     crystal axes: (cart. coord. in units of alat)
               a(1) = (   1.000000   0.000000   0.000000 )
               a(2) = (  -0.166667   1.247219   0.000000 )
               a(3) = (   0.000000   0.000000   8.704589 )

     reciprocal axes: (cart. coord. in units 2 pi/alat)
               b(1) = (  1.000000  0.133631 -0.000000 )
               b(2) = (  0.000000  0.801784  0.000000 )
               b(3) = (  0.000000 -0.000000  0.114882 )

     PseudoPot. # 1 for Li read from file:
     /work/e89/e89/ba3g18/Repos/Pseudopotentials/Pslibrary/Li.pbe-sl-kjpaw_psl.1.0.0.UPF
     MD5 check sum: 3f4d2cafebb47c6c3aa8ed472e6f074d
     Pseudo is Projector augmented-wave, Zval =  3.0
     Generated using 'atomic' code by A. Dal Corso  v.7.4
     Shape of augmentation charge: PSQ
     Using radial grid of 1017 points,  4 beta functions with:
                l(1) =   0
                l(2) =   0
                l(3) =   1
                l(4) =   1
     Q(r) pseudized with 0 coefficients

     atomic species   valence    mass     pseudopotential
     Li                3.00     6.94000     Li( 1.00)

     No symmetry found

                                    s                        frac. trans.

      isym =  1     identity

 cryst.   s( 1) = (     1          0          0      )
                  (     0          1          0      )
                  (     0          0          1      )

 cart.    s( 1) = (  1.0000000  0.0000000  0.0000000 )
                  (  0.0000000  1.0000000  0.0000000 )
                  (  0.0000000  0.0000000  1.0000000 )

     point group C_1 (1)
     there are  1 classes
     the character table:

       E
A      1.00

     the symmetry operations in each class and the name of the first element:

     E        1
          identity

   Cartesian axes

     site n.     atom                  positions (alat units)
         1        Li     tau(   1) = (   0.0455010  -0.0416880   5.3488909  )
         2        Li     tau(   2) = (  -0.0455460   0.8435580   3.3549788  )
         3        Li     tau(   3) = (   0.1266236   0.3561597   3.4917538  )
         4        Li     tau(   4) = (   0.1711493   1.1719878   3.6702080  )
         5        Li     tau(   5) = (   0.3018842   0.7093877   3.7903797  )
         6        Li     tau(   6) = (  -0.0007488   0.2775031   3.9718732  )
         7        Li     tau(   7) = (  -0.0253267   1.0625755   4.1128850  )
         8        Li     tau(   8) = (   0.1809249   0.6332560   4.2751393  )
         9        Li     tau(   9) = (   0.3191167   0.1685050   4.4300964  )
        10        Li     tau(  10) = (   0.3586845   0.9864265   4.5921967  )
        11        Li     tau(  11) = (   0.0007704   0.5242644   4.7330456  )
        12        Li     tau(  12) = (   0.1981438   0.0923981   4.9141248  )
        13        Li     tau(  13) = (   0.1621491   0.8770054   5.0342180  )
        14        Li     tau(  14) = (   0.3733424   0.4455842   5.2123331  )
        15        Li     tau(  15) = (   0.5455028  -0.0416894   5.3488913  )
        16        Li     tau(  16) = (   0.4544426   0.8435569   3.3549799  )
        17        Li     tau(  17) = (   0.6266293   0.3561603   3.4917546  )
        18        Li     tau(  18) = (   0.6711505   1.1719911   3.6702095  )
        19        Li     tau(  19) = (   0.8018823   0.7093868   3.7903806  )
        20        Li     tau(  20) = (   0.4992527   0.2775039   3.9718736  )
        21        Li     tau(  21) = (   0.4746732   1.0625753   4.1128857  )
        22        Li     tau(  22) = (   0.6809248   0.6332555   4.2751382  )
        23        Li     tau(  23) = (   0.8191162   0.1685052   4.4300969  )
        24        Li     tau(  24) = (   0.8586848   0.9864264   4.5921968  )
        25        Li     tau(  25) = (   0.5007704   0.5242641   4.7330461  )
        26        Li     tau(  26) = (   0.6981430   0.0923982   4.9141256  )
        27        Li     tau(  27) = (   0.6621494   0.8770060   5.0342180  )
        28        Li     tau(  28) = (   0.8733433   0.4455849   5.2123326  )

   Crystallographic axes

     site n.     atom                  positions (cryst. coord.)
         1        Li     tau(   1) = (  0.0399302 -0.0334247  0.6144909  )
         2        Li     tau(   2) = (  0.0671794  0.6763512  0.3854264  )
         3        Li     tau(   3) = (  0.1742176  0.2855631  0.4011394  )
         4        Li     tau(   4) = (  0.3277631  0.9396808  0.4216406  )
         5        Li     tau(   5) = (  0.3966803  0.5687755  0.4354461  )
         6        Li     tau(   6) = (  0.0363342  0.2224975  0.4562965  )
         7        Li     tau(   7) = (  0.1166662  0.8519558  0.4724962  )
         8        Li     tau(   8) = (  0.2655474  0.5077344  0.4911363  )
         9        Li     tau(   9) = (  0.3416341  0.1351046  0.5089380  )
        10        Li     tau(  10) = (  0.4905016  0.7909008  0.5275604  )
        11        Li     tau(  11) = (  0.0708283  0.4203467  0.5437414  )
        12        Li     tau(  12) = (  0.2104910  0.0740833  0.5645441  )
        13        Li     tau(  13) = (  0.2793441  0.7031687  0.5783407  )
        14        Li     tau(  14) = (  0.4328863  0.3572622  0.5988029  )
        15        Li     tau(  15) = (  0.5399318 -0.0334258  0.6144910  )
        16        Li     tau(  16) = (  0.5671678  0.6763502  0.3854266  )
        17        Li     tau(  17) = (  0.6742234  0.2855636  0.4011395  )
        18        Li     tau(  18) = (  0.8277648  0.9396835  0.4216408  )
        19        Li     tau(  19) = (  0.8966783  0.5687748  0.4354462  )
        20        Li     tau(  20) = (  0.5363358  0.2224981  0.4562965  )
        21        Li     tau(  21) = (  0.6166661  0.8519557  0.4724963  )
        22        Li     tau(  22) = (  0.7655473  0.5077340  0.4911361  )
        23        Li     tau(  23) = (  0.8416337  0.1351047  0.5089381  )
        24        Li     tau(  24) = (  0.9905019  0.7909007  0.5275604  )
        25        Li     tau(  25) = (  0.5708283  0.4203464  0.5437415  )
        26        Li     tau(  26) = (  0.7104902  0.0740834  0.5645442  )
        27        Li     tau(  27) = (  0.7793445  0.7031692  0.5783407  )
        28        Li     tau(  28) = (  0.9328872  0.3572628  0.5988028  )

     number of k points=    50  Marzari-Vanderbilt smearing, width (Ry)=  0.0100
                       cart. coord. in units 2pi/alat
        k(    1) = (   0.0000000   0.0000000   0.0000000), wk =   0.0202020
        k(    2) = (   0.0000000   0.0890871   0.0000000), wk =   0.0404040
        k(    3) = (   0.0000000   0.1781742   0.0000000), wk =   0.0404040
        k(    4) = (   0.0000000   0.2672613   0.0000000), wk =   0.0404040
[...]
     atom   15 type  1   force =    -0.00002658   -0.00009818   -0.00018579
     atom   16 type  1   force =     0.00005309    0.00009777    0.00009224
     atom   17 type  1   force =     0.00014566    0.00003646   -0.00007574
     atom   18 type  1   force =     0.00005255    0.00003405    0.00008885
     atom   19 type  1   force =    -0.00011964   -0.00015140    0.00005522
     atom   20 type  1   force =    -0.00002536    0.00003818   -0.00010282
     atom   21 type  1   force =    -0.00008390   -0.00025906    0.00000474
     atom   22 type  1   force =    -0.00010436    0.00029292   -0.00021920
     atom   23 type  1   force =     0.00008262   -0.00027998    0.00031465
     atom   24 type  1   force =     0.00007591    0.00024990    0.00004496
     atom   25 type  1   force =     0.00002238   -0.00003974    0.00014060
     atom   26 type  1   force =     0.00010878    0.00013937   -0.00001581
     atom   27 type  1   force =    -0.00003794   -0.00000119   -0.00014368
     atom   28 type  1   force =    -0.00014088   -0.00006047   -0.00000221
     The non-local contrib.  to forces
     atom    1 type  1   force =     0.00080948   -0.01189413    0.05947787
     atom    2 type  1   force =    -0.00084960    0.01189217   -0.05951314
     atom    3 type  1   force =    -0.00019721   -0.01397797   -0.03408712
     atom    4 type  1   force =     0.00132724    0.00271888   -0.00902876
     atom    5 type  1   force =    -0.00048185   -0.00253949   -0.00065968
     atom    6 type  1   force =     0.00075871    0.00024154    0.00418805
     atom    7 type  1   force =    -0.00088134   -0.00103806    0.00073544
     atom    8 type  1   force =     0.00034401    0.00185533   -0.00054171
     atom    9 type  1   force =    -0.00031784   -0.00183794    0.00058770
     atom   10 type  1   force =     0.00089191    0.00101927   -0.00068915
     atom   11 type  1   force =    -0.00074256   -0.00022938   -0.00417037
     atom   12 type  1   force =     0.00050423    0.00255971    0.00068718
     atom   13 type  1   force =    -0.00135024   -0.00268248    0.00898553
     atom   14 type  1   force =     0.00018868    0.01390459    0.03397848
     atom   15 type  1   force =     0.00080716   -0.01189414    0.05947786
     atom   16 type  1   force =    -0.00083467    0.01189112   -0.05951277
     atom   17 type  1   force =    -0.00020245   -0.01397683   -0.03408956
     atom   18 type  1   force =     0.00132703    0.00271243   -0.00903103
     atom   19 type  1   force =    -0.00048058   -0.00253659   -0.00066252
     atom   20 type  1   force =     0.00075414    0.00023978    0.00418640
     atom   21 type  1   force =    -0.00088255   -0.00103782    0.00073554
     atom   22 type  1   force =     0.00034393    0.00185590   -0.00053975
     atom   23 type  1   force =    -0.00031705   -0.00183805    0.00058849
     atom   24 type  1   force =     0.00089070    0.00101934   -0.00068940
     atom   25 type  1   force =    -0.00074141   -0.00022904   -0.00417028
     atom   26 type  1   force =     0.00050460    0.00256018    0.00068656
     atom   27 type  1   force =    -0.00135039   -0.00268347    0.00898493
     atom   28 type  1   force =     0.00018846    0.01390503    0.03397842
     The ionic contribution  to forces
     atom    1 type  1   force =    -0.00057682   -0.17289449   13.09184268
     atom    2 type  1   force =     0.00069028    0.17321127  -13.09415553
     atom    3 type  1   force =     0.00193739   -0.30114126  -11.95722852
     atom    4 type  1   force =    -0.00304169    0.15089207   -9.79078707
     atom    5 type  1   force =     0.00264423   -0.00320580   -7.53911387
     atom    6 type  1   force =    -0.00270600   -0.03698575   -5.27711365
     atom    7 type  1   force =     0.00274789    0.01655062   -3.36414401
     atom    8 type  1   force =    -0.00270407    0.01732772   -0.95974311
     atom    9 type  1   force =     0.00247915   -0.01707725    0.96036402
     atom   10 type  1   force =    -0.00280099   -0.01680837    3.36783874
     atom   11 type  1   force =     0.00268923    0.03678933    5.27676503
     atom   12 type  1   force =    -0.00280006    0.00306703    7.53824739
     atom   13 type  1   force =     0.00322408   -0.14986931    9.79162640
     atom   14 type  1   force =    -0.00180633    0.30016331   11.95559271
     atom   15 type  1   force =    -0.00061550   -0.17289530   13.09184347
     atom   16 type  1   force =     0.00092420    0.17320710  -13.09415488
     atom   17 type  1   force =     0.00183988   -0.30111772  -11.95723464
     atom   18 type  1   force =    -0.00305342    0.15078781   -9.79080073
     atom   19 type  1   force =     0.00267548   -0.00314862   -7.53910430
     atom   20 type  1   force =    -0.00278165   -0.03701099   -5.27711237
     atom   21 type  1   force =     0.00273579    0.01655070   -3.36413963
     atom   22 type  1   force =    -0.00270943    0.01733906   -0.95975117
     atom   23 type  1   force =     0.00249551   -0.01707692    0.96037605
     atom   24 type  1   force =    -0.00281155   -0.01680879    3.36784653
     atom   25 type  1   force =     0.00270949    0.03679848    5.27676199
     atom   26 type  1   force =    -0.00279447    0.00307236    7.53825725
     atom   27 type  1   force =     0.00322263   -0.14988312    9.79161974
     atom   28 type  1   force =    -0.00181323    0.30016682   11.95560147
     The local contribution  to forces
     atom    1 type  1   force =     0.00018403    0.15745303  -13.14423980
     atom    2 type  1   force =    -0.00024265   -0.15774993   13.14673200
     atom    3 type  1   force =    -0.00135648    0.27874840   11.93282261
     atom    4 type  1   force =     0.00195413   -0.14002606    9.72807897
     atom    5 type  1   force =    -0.00215671    0.00653959    7.50659622
     atom    6 type  1   force =     0.00183084    0.03306950    5.24168616
     atom    7 type  1   force =    -0.00184534   -0.01395696    3.34404788
     atom    8 type  1   force =     0.00212381   -0.01880034    0.95585933
     atom    9 type  1   force =    -0.00194809    0.01854713   -0.95611264
     atom   10 type  1   force =     0.00188125    0.01422298   -3.34739704
     atom   11 type  1   force =    -0.00183161   -0.03289184   -5.24099016
     atom   12 type  1   force =     0.00227309   -0.00643224   -7.50537059
     atom   13 type  1   force =    -0.00209443    0.13900176   -9.72855982
     atom   14 type  1   force =     0.00124668   -0.27768341  -11.93077830
     atom   15 type  1   force =     0.00022263    0.15745377  -13.14424010
     atom   16 type  1   force =    -0.00047732   -0.15774467   13.14672872
     atom   17 type  1   force =    -0.00126148    0.27872431   11.93283074
     atom   18 type  1   force =     0.00196442   -0.13992168    9.72809312
     atom   19 type  1   force =    -0.00218575    0.00648225    7.50658601
     atom   20 type  1   force =     0.00190840    0.03309475    5.24168528
     atom   21 type  1   force =    -0.00183233   -0.01395719    3.34404313
     atom   22 type  1   force =     0.00212861   -0.01881173    0.95586760
     atom   23 type  1   force =    -0.00196445    0.01854714   -0.95612506
     atom   24 type  1   force =     0.00189267    0.01422315   -3.34740514
     atom   25 type  1   force =    -0.00185218   -0.03290086   -5.24098745
     atom   26 type  1   force =     0.00226753   -0.00643789   -7.50538051
     atom   27 type  1   force =    -0.00209322    0.13901576   -9.72855281
     atom   28 type  1   force =     0.00125290   -0.27768733  -11.93078736
     The core correction contribution to forces
     atom    1 type  1   force =     0.00000000    0.00000000    0.00000000
     atom    2 type  1   force =     0.00000000    0.00000000    0.00000000
     atom    3 type  1   force =     0.00000000    0.00000000    0.00000000
     atom    4 type  1   force =     0.00000000    0.00000000    0.00000000
     atom    5 type  1   force =     0.00000000    0.00000000    0.00000000
     atom    6 type  1   force =     0.00000000    0.00000000    0.00000000
     atom    7 type  1   force =     0.00000000    0.00000000    0.00000000
     atom    8 type  1   force =     0.00000000    0.00000000    0.00000000
     atom    9 type  1   force =     0.00000000    0.00000000    0.00000000
     atom   10 type  1   force =     0.00000000    0.00000000    0.00000000
     atom   11 type  1   force =     0.00000000    0.00000000    0.00000000
     atom   12 type  1   force =     0.00000000    0.00000000    0.00000000
     atom   13 type  1   force =     0.00000000    0.00000000    0.00000000
     atom   14 type  1   force =     0.00000000    0.00000000    0.00000000
     atom   15 type  1   force =     0.00000000    0.00000000    0.00000000
     atom   16 type  1   force =     0.00000000    0.00000000    0.00000000
     atom   17 type  1   force =     0.00000000    0.00000000    0.00000000
     atom   18 type  1   force =     0.00000000    0.00000000    0.00000000
     atom   19 type  1   force =     0.00000000    0.00000000    0.00000000
     atom   20 type  1   force =     0.00000000    0.00000000    0.00000000
     atom   21 type  1   force =     0.00000000    0.00000000    0.00000000
     atom   22 type  1   force =     0.00000000    0.00000000    0.00000000
     atom   23 type  1   force =     0.00000000    0.00000000    0.00000000
     atom   24 type  1   force =     0.00000000    0.00000000    0.00000000
     atom   25 type  1   force =     0.00000000    0.00000000    0.00000000
     atom   26 type  1   force =     0.00000000    0.00000000    0.00000000
     atom   27 type  1   force =     0.00000000    0.00000000    0.00000000
     atom   28 type  1   force =     0.00000000    0.00000000    0.00000000
     The Hubbard contrib.    to forces
     atom    1 type  1   force =     0.00000000    0.00000000    0.00000000
     atom    2 type  1   force =     0.00000000    0.00000000    0.00000000
     atom    3 type  1   force =     0.00000000    0.00000000    0.00000000
     atom    4 type  1   force =     0.00000000    0.00000000    0.00000000
     atom    5 type  1   force =     0.00000000    0.00000000    0.00000000
     atom    6 type  1   force =     0.00000000    0.00000000    0.00000000
     atom    7 type  1   force =     0.00000000    0.00000000    0.00000000
     atom    8 type  1   force =     0.00000000    0.00000000    0.00000000
     atom    9 type  1   force =     0.00000000    0.00000000    0.00000000
     atom   10 type  1   force =     0.00000000    0.00000000    0.00000000
     atom   11 type  1   force =     0.00000000    0.00000000    0.00000000
     atom   12 type  1   force =     0.00000000    0.00000000    0.00000000
     atom   13 type  1   force =     0.00000000    0.00000000    0.00000000
     atom   14 type  1   force =     0.00000000    0.00000000    0.00000000
     atom   15 type  1   force =     0.00000000    0.00000000    0.00000000
     atom   16 type  1   force =     0.00000000    0.00000000    0.00000000
     atom   17 type  1   force =     0.00000000    0.00000000    0.00000000
     atom   18 type  1   force =     0.00000000    0.00000000    0.00000000
     atom   19 type  1   force =     0.00000000    0.00000000    0.00000000
     atom   20 type  1   force =     0.00000000    0.00000000    0.00000000
     atom   21 type  1   force =     0.00000000    0.00000000    0.00000000
     atom   22 type  1   force =     0.00000000    0.00000000    0.00000000
     atom   23 type  1   force =     0.00000000    0.00000000    0.00000000
     atom   24 type  1   force =     0.00000000    0.00000000    0.00000000
     atom   25 type  1   force =     0.00000000    0.00000000    0.00000000
     atom   26 type  1   force =     0.00000000    0.00000000    0.00000000
     atom   27 type  1   force =     0.00000000    0.00000000    0.00000000
     atom   28 type  1   force =     0.00000000    0.00000000    0.00000000
     The SCF correction term to forces
     atom    1 type  1   force =     0.00000003   -0.00000015   -0.00000067
     atom    2 type  1   force =    -0.00000002    0.00000018    0.00000358
     atom    3 type  1   force =    -0.00000019    0.00000005    0.00000326
     atom    4 type  1   force =    -0.00000075    0.00000014   -0.00000084
     atom    5 type  1   force =     0.00000079   -0.00000026    0.00000021
     atom    6 type  1   force =    -0.00000006   -0.00000009    0.00000061
     atom    7 type  1   force =    -0.00000005    0.00000004    0.00000059
     atom    8 type  1   force =     0.00000007   -0.00000004    0.00000096
     atom    9 type  1   force =    -0.00000006    0.00000007    0.00000101
     atom   10 type  1   force =     0.00000010   -0.00000001    0.00000123
     atom   11 type  1   force =     0.00000004    0.00000004    0.00000104
     atom   12 type  1   force =    -0.00000075    0.00000034    0.00000102
     atom   13 type  1   force =     0.00000076   -0.00000015    0.00000144
     atom   14 type  1   force =     0.00000017   -0.00000010   -0.00000067
     atom   15 type  1   force =     0.00000003   -0.00000016   -0.00000068
     atom   16 type  1   force =     0.00000001    0.00000021    0.00000367
     atom   17 type  1   force =    -0.00000018    0.00000005    0.00000325
     atom   18 type  1   force =    -0.00000075    0.00000014   -0.00000082
     atom   19 type  1   force =     0.00000080   -0.00000026    0.00000021
     atom   20 type  1   force =    -0.00000006   -0.00000009    0.00000062
     atom   21 type  1   force =    -0.00000005    0.00000004    0.00000058
     atom   22 type  1   force =     0.00000007   -0.00000004    0.00000096
     atom   23 type  1   force =    -0.00000006    0.00000007    0.00000100
     atom   24 type  1   force =     0.00000010   -0.00000001    0.00000124
     atom   25 type  1   force =     0.00000004    0.00000003    0.00000105
     atom   26 type  1   force =    -0.00000075    0.00000033    0.00000102
     atom   27 type  1   force =     0.00000075   -0.00000015    0.00000144
     atom   28 type  1   force =     0.00000017   -0.00000010   -0.00000069

     Total force =     0.001211     Total SCF correction =     0.000009
     Energy error            =      6.4E-06 Ry
     Gradient error          =      3.1E-04 Ry/Bohr

     bfgs converged in  33 scf cycles and  32 bfgs steps
     (criteria: energy <  1.0E-05 Ry, force <  3.9E-04 Ry/Bohr)

     End of BFGS Geometry Optimization

     Final energy             =    -421.0401019642 Ry

     File ./Li/Lithium.bfgs deleted, as requested
Begin final coordinates

ATOMIC_POSITIONS (angstrom)
Li               0.2590169354       -0.1873156288       31.7357994277
Li              -0.2614408318        4.9589793051       20.0577781155
Li               0.7419173131        2.1469906144       20.7917014369
Li               1.0634036602        7.0174961336       21.7842039376
Li               1.7196138002        4.2161448857       22.6257176091
Li               0.0170513803        1.6680907722       23.6485305493
Li              -0.1196675958        6.3232413129       24.4474959219
Li               1.0793867549        3.7666535913       25.4764300489
Li               1.8988883759        1.0029225467       26.3115006837
Li               2.1035224117        5.8673235254       27.3426806290
Li              -0.0149195298        3.1021006577       28.1409989004
Li               1.2569587397        0.5544492572       29.1646892930
Li               0.9169990036        5.1735825703       30.0088232432
Li               2.2306662891        2.6244238652       31.0015247594
Li               3.2339708113       -0.1873134053       31.7357973713
Li               2.7133620093        4.9589762529       20.0577915726
Li               3.7169117184        2.1469928768       20.7917093346
Li               4.0383500162        7.0175419659       21.7842174742
Li               4.6945144360        4.2161215847       22.6257518324
Li               2.9920055067        1.6681075291       23.6485424408
Li               2.8552658260        6.3232396091       24.4474979515
Li               4.0543252166        3.7666476052       25.4764100223
Li               4.8738134348        1.0029197402       26.3114992468
Li               5.0784569900        5.8673225889       27.3426860251
Li               2.9600052231        3.1020967403       28.1409982661
Li               4.2318883969        0.5544528512       29.1646992251
Li               3.8919313180        5.1735882500       30.0088243778
Li               5.2056050152        2.6244294196       31.0015316825
End final coordinates

     Writing all to output data dir ./Li/Lithium.save/ :
     XML data file

     General routines

     Parallel routines

     PAW routines

     Environ routines

   This run was terminated on:  16:50:17   3Jan2025

   JOB DONE.