     Program PWSCF v.7.4 starts on  2Jan2025 at 10:45:26

     Reading input from espresso.pwi
Warning: card &CELL ignored
Warning: card    PRESS_CONV_THR   = 0.1 ignored
Warning: card    CELL_DOFREE      = 'ALL' ignored
Warning: card / ignored
Warning: card &FCP ignored
Warning: card / ignored
Warning: card &RISM ignored
Warning: card / ignored

     Current dimensions of program PWSCF are:
     Max number of different atomic species (ntypx) = 10
     Max number of k-points (npk) =  40000
     Max angular momentum in pseudopotentials (lmaxx) =  4

     IMPORTANT: XC functional enforced from input :
     Exchange-correlation= PBE
                           (   1   4   3   4   0   0   0)
     Any further DFT definition will be discarded
     Please, verify this is what you really want

     Reading input from environ.in:
     * using ionic solvent mode
     * setting boundary derivatives method to SSCS default
     * setting electrolyte-boundary derivatives method to SSCS default

Environ Warning (1001): card EOF ignored

     K-points division:     npool     =       2
     R & G space division:  proc/nbgrp/npool/nimage =     192
     Subspace diagonalization in iterative solution of the eigenvalue problem:
     a serial algorithm will be used

     Using Slab Decomposition

     bravais-lattice index     =            8
     lattice parameter (alat)  =      11.2436  a.u.
     unit-cell volume          =   18353.5537 (a.u.)^3
     number of atoms/cell      =           24
     number of atomic types    =            1
     number of electrons       =        72.00
     number of Kohn-Sham states=           54
     kinetic-energy cutoff     =      80.0000  Ry
     charge density cutoff     =     800.0000  Ry
     scf convergence threshold =      1.0E-06
     mixing beta               =       0.2000
     number of iterations used =            8  local-TF  mixing
     energy convergence thresh.=      1.0E-05
     force convergence thresh. =      3.9E-04
     Exchange-correlation= PBE
                           (   1   4   3   4   0   0   0)
     nstep                     =          999

                                  Environ Setup Summary

          O. Andreussi, I. Dabo and N. Marzari, J. Chem. Phys. 136, 064102 (2012)
          F. Nattino, M. Truscott, N. Marzari, and O. Andreussi, J. Chem. Phys. 150, 041722 (2019)

     in publications or presentations arising from this work.

     Parameters

     compensation onset threshold      =               0.1000E+00
     static permittivity               =                    89.90
     surface tension in input (dyn/cm) =                    37.30
     surface tension in internal units =               0.4792E-04

     Solvent Boundary

     solvent mode                      =                    ionic
     derivatives method                =                   lowmem
     electrolyte derivatives method    =                   lowmem
     numerical core for derivatives    =                      fft
     switching function adopted        =                     SCCS
     density limit for vacuum region   =               0.5000E-02
     density limit for bulk solvent    =               0.1000E-03
     soft-sphere radius mode           =                    bondi
     soft-sphere softness              =                     0.50
     alpha                             =                     1.32

     Electrostatic Setup

     electrostatic problem to solve    =                    modpb
     numerical solver adopted          =                   newton
     type of auxiliary density adopted =                     none
     numerical core for poisson        =                      fft
     adopting a nested solver scheme
     inner solver                      =                       cg
     inner core                        =                      fft
     type of pbc corrections           =                parabolic
     numerical core for corrections    =                      1da

     >>>>> Grand-Canonical SCF is activated <<<<<
     Initial Total Charge  =     0.000000 e
     Target Fermi Energy   =    -2.904000 eV
     Thr. of Fermi Energy  =     0.001000 eV
     Wave-shift of Kerker  =     0.400000 bohr^-1
     Wave-shift of Hartree =     1.500000 bohr^-1
     Mixing Rate of Fermi  =     0.050000

     celldm(1)=  11.243615  celldm(2)=   1.632993  celldm(3)=   7.907113
     celldm(4)=   0.000000  celldm(5)=   0.000000  celldm(6)=   0.000000

     crystal axes: (cart. coord. in units of alat)
               a(1) = (   1.000000   0.000000   0.000000 )
               a(2) = (   0.000000   1.632993   0.000000 )
               a(3) = (   0.000000   0.000000   7.907113 )

     reciprocal axes: (cart. coord. in units 2 pi/alat)
               b(1) = (  1.000000  0.000000  0.000000 )
               b(2) = (  0.000000  0.612372  0.000000 )
               b(3) = (  0.000000  0.000000  0.126468 )

     PseudoPot. # 1 for Li read from file:
     /work/e89/e89/ba3g18/Repos/Pseudopotentials/Pslibrary/Li.pbe-sl-kjpaw_psl.1.0.0.UPF
     MD5 check sum: 3f4d2cafebb47c6c3aa8ed472e6f074d
     Pseudo is Projector augmented-wave, Zval =  3.0
     Generated using 'atomic' code by A. Dal Corso  v.7.4
     Shape of augmentation charge: PSQ
     Using radial grid of 1017 points,  4 beta functions with:
                l(1) =   0
                l(2) =   0
                l(3) =   1
                l(4) =   1
     Q(r) pseudized with 0 coefficients

     atomic species   valence    mass     pseudopotential
     Li                3.00     6.94000     Li( 1.00)

      2 Sym. Ops. (no inversion) found

                                    s                        frac. trans.

      isym =  1     identity

 cryst.   s( 1) = (     1          0          0      )
                  (     0          1          0      )
                  (     0          0          1      )

 cart.    s( 1) = (  1.0000000  0.0000000  0.0000000 )
                  (  0.0000000  1.0000000  0.0000000 )
                  (  0.0000000  0.0000000  1.0000000 )

      isym =  2     inv. 180 deg rotation - cart. axis [0,1,0]

 cryst.   s( 2) = (     1          0          0      )
                  (     0         -1          0      )
                  (     0          0          1      )

 cart.    s( 2) = (  1.0000000  0.0000000  0.0000000 )
                  (  0.0000000 -1.0000000  0.0000000 )
                  (  0.0000000  0.0000000  1.0000000 )

     point group C_s (m)
     there are  2 classes
     the character table:

       E     s
A'     1.00  1.00
A''    1.00 -1.00

     the symmetry operations in each class and the name of the first element:

     E        1
          identity
     s        2
          inv. 180 deg rotation - cart. axis [0,1,0]

   Cartesian axes

     site n.     atom                  positions (alat units)
         1        Li     tau(   1) = (   0.5237414   0.8164966   4.5569018  )
         2        Li     tau(   2) = (   0.1429479   0.4082007   3.3502763  )
         3        Li     tau(   3) = (   0.3363564   0.8164966   3.6206637  )
         4        Li     tau(   4) = (   0.5238298   0.4082942   3.8172566  )
         5        Li     tau(   5) = (   0.1428529   0.8164966   4.0897289  )
         6        Li     tau(   6) = (   0.3302651   0.4082554   4.2865333  )
         7        Li     tau(   7) = (   0.5237542   1.6329931   4.5568809  )
         8        Li     tau(   8) = (   0.1429479   1.2247925   3.3502763  )
         9        Li     tau(   9) = (   0.3364002   1.6329931   3.6204693  )
        10        Li     tau(  10) = (   0.5238298   1.2246991   3.8172566  )
        11        Li     tau(  11) = (   0.1428625   1.6329931   4.0898723  )
        12        Li     tau(  12) = (   0.3302651   1.2247378   4.2865333  )
        13        Li     tau(  13) = (   1.0236463   0.8164966   4.5568908  )
        14        Li     tau(  14) = (   0.6429927   0.4081914   3.3502743  )
        15        Li     tau(  15) = (   0.8363757   0.8164966   3.6206497  )
        16        Li     tau(  16) = (   1.0238407   0.4083023   3.8172659  )
        17        Li     tau(  17) = (   0.6428349   0.8164966   4.0897445  )
        18        Li     tau(  18) = (   0.8303328   0.4082636   4.2865604  )
        19        Li     tau(  19) = (   1.0236415   1.6329931   4.5568741  )
        20        Li     tau(  20) = (   0.6429927   1.2248019   3.3502743  )
        21        Li     tau(  21) = (   0.8363058   1.6329931   3.6204710  )
        22        Li     tau(  22) = (   1.0238407   1.2246909   3.8172659  )
        23        Li     tau(  23) = (   0.6428107   1.6329931   4.0898374  )
        24        Li     tau(  24) = (   0.8303328   1.2247297   4.2865604  )

   Crystallographic axes

     site n.     atom                  positions (cryst. coord.)
         1        Li     tau(   1) = (  0.5237414  0.5000001  0.5763041  )
         2        Li     tau(   2) = (  0.1429479  0.2499709  0.4237041  )
         3        Li     tau(   3) = (  0.3363564  0.5000001  0.4578996  )
         4        Li     tau(   4) = (  0.5238298  0.2500281  0.4827624  )
         5        Li     tau(   5) = (  0.1428529  0.5000001  0.5172215  )
         6        Li     tau(   6) = (  0.3302651  0.2500044  0.5421110  )
         7        Li     tau(   7) = (  0.5237542  1.0000001  0.5763015  )
         8        Li     tau(   8) = (  0.1429479  0.7500292  0.4237041  )
         9        Li     tau(   9) = (  0.3364002  1.0000001  0.4578750  )
        10        Li     tau(  10) = (  0.5238298  0.7499720  0.4827624  )
        11        Li     tau(  11) = (  0.1428625  1.0000001  0.5172396  )
        12        Li     tau(  12) = (  0.3302651  0.7499958  0.5421111  )
        13        Li     tau(  13) = (  1.0236463  0.5000001  0.5763027  )
        14        Li     tau(  14) = (  0.6429927  0.2499652  0.4237039  )
        15        Li     tau(  15) = (  0.8363757  0.5000001  0.4578978  )
        16        Li     tau(  16) = (  1.0238407  0.2500331  0.4827635  )
        17        Li     tau(  17) = (  0.6428349  0.5000001  0.5172235  )
        18        Li     tau(  18) = (  0.8303328  0.2500094  0.5421145  )
        19        Li     tau(  19) = (  1.0236415  1.0000001  0.5763006  )
        20        Li     tau(  20) = (  0.6429927  0.7500350  0.4237039  )
        21        Li     tau(  21) = (  0.8363058  1.0000001  0.4578752  )
        22        Li     tau(  22) = (  1.0238407  0.7499671  0.4827635  )
        23        Li     tau(  23) = (  0.6428107  1.0000001  0.5172352  )
        24        Li     tau(  24) = (  0.8303328  0.7499908  0.5421145  )

     number of k points=    24  Marzari-Vanderbilt smearing, width (Ry)=  0.0100
                       cart. coord. in units 2pi/alat
        k(    1) = (   0.0000000   0.0000000   0.0000000), wk =   0.0259740
        k(    2) = (   0.0000000   0.0874818   0.0000000), wk =   0.0519481
        k(    3) = (   0.0000000   0.1749636   0.0000000), wk =   0.0519481
        k(    4) = (   0.0000000   0.2624454   0.0000000), wk =   0.0519481
        k(    5) = (   0.0909091   0.0000000   0.0000000), wk =   0.0519481
        k(    6) = (   0.0909091   0.0874818   0.0000000), wk =   0.1038961
[...]
     atom    8 type  1   force =     0.00016287   -0.00001410   -0.01944676
     atom    9 type  1   force =    -0.00014873   -0.00000002   -0.00445138
     atom   10 type  1   force =    -0.00004479    0.00000323   -0.00341080
     atom   11 type  1   force =     0.00004516    0.00000000    0.00341631
     atom   12 type  1   force =     0.00014954    0.00001020    0.00445106
     atom   13 type  1   force =    -0.00017288    0.00000009    0.01945766
     atom   14 type  1   force =     0.00016805    0.00001071   -0.01944692
     atom   15 type  1   force =    -0.00014777   -0.00000003   -0.00446771
     atom   16 type  1   force =    -0.00004491   -0.00000175   -0.00341121
     atom   17 type  1   force =     0.00004546    0.00000001    0.00340800
     atom   18 type  1   force =     0.00015052   -0.00000986    0.00445558
     atom   19 type  1   force =    -0.00017133    0.00000007    0.01948123
     atom   20 type  1   force =     0.00016805   -0.00001053   -0.01944690
     atom   21 type  1   force =    -0.00015102   -0.00000002   -0.00445131
     atom   22 type  1   force =    -0.00004491    0.00000175   -0.00341120
     atom   23 type  1   force =     0.00004465    0.00000000    0.00341756
     atom   24 type  1   force =     0.00015052    0.00000982    0.00445560

     Forces acting on atoms (cartesian axes, Ry/au):

     atom    1 type  1   force =    -0.00005207    0.00000000    0.00019381
     atom    2 type  1   force =     0.00009837    0.00000428   -0.00022256
     atom    3 type  1   force =    -0.00007477    0.00000000   -0.00023507
     atom    4 type  1   force =    -0.00017955   -0.00003284    0.00003985
     atom    5 type  1   force =     0.00018393    0.00000000   -0.00002583
     atom    6 type  1   force =     0.00003237   -0.00005507    0.00021942
     atom    7 type  1   force =    -0.00004999    0.00000000    0.00013222
     atom    8 type  1   force =     0.00009837   -0.00000428   -0.00022256
     atom    9 type  1   force =    -0.00002431    0.00000000   -0.00022235
     atom   10 type  1   force =    -0.00017955    0.00003284    0.00003985
     atom   11 type  1   force =     0.00019285    0.00000000    0.00006896
     atom   12 type  1   force =     0.00003237    0.00005507    0.00021942
     atom   13 type  1   force =    -0.00018269    0.00000000    0.00020045
     atom   14 type  1   force =     0.00015358   -0.00000241   -0.00022085
     atom   15 type  1   force =    -0.00006886    0.00000000   -0.00024056
     atom   16 type  1   force =    -0.00017783   -0.00001208    0.00004227
     atom   17 type  1   force =     0.00014734    0.00000000   -0.00001148
     atom   18 type  1   force =     0.00010900   -0.00005083    0.00024964
     atom   19 type  1   force =    -0.00019115    0.00000000    0.00012375
     atom   20 type  1   force =     0.00015358    0.00000241   -0.00022085
     atom   21 type  1   force =    -0.00009187    0.00000000   -0.00023827
     atom   22 type  1   force =    -0.00017783    0.00001208    0.00004227
     atom   23 type  1   force =     0.00013970    0.00000000    0.00003885
     atom   24 type  1   force =     0.00010900    0.00005083    0.00024964
     The non-local contrib.  to forces
     atom    1 type  1   force =     0.00085669    0.00000000    0.09424933
     atom    2 type  1   force =    -0.00082903    0.00001211   -0.09424078
     atom    3 type  1   force =     0.00129894    0.00000000   -0.01353012
     atom    4 type  1   force =     0.00005781   -0.00002477   -0.00248679
     atom    5 type  1   force =    -0.00004271    0.00000000    0.00248930
     atom    6 type  1   force =    -0.00132599   -0.00008016    0.01349241
     atom    7 type  1   force =     0.00084242    0.00000000    0.09418172
     atom    8 type  1   force =    -0.00082903   -0.00001211   -0.09424078
     atom    9 type  1   force =     0.00133053    0.00000000   -0.01351934
     atom   10 type  1   force =     0.00005781    0.00002477   -0.00248679
     atom   11 type  1   force =    -0.00002567    0.00000000    0.00257995
     atom   12 type  1   force =    -0.00132599    0.00008016    0.01349241
     atom   13 type  1   force =     0.00073257    0.00000000    0.09423838
     atom   14 type  1   force =    -0.00077542   -0.00001087   -0.09423117
     atom   15 type  1   force =     0.00132071    0.00000000   -0.01355588
     atom   16 type  1   force =     0.00007201   -0.00000116   -0.00247320
     atom   17 type  1   force =    -0.00004930    0.00000000    0.00249382
     atom   18 type  1   force =    -0.00128624   -0.00007818    0.01354681
     atom   19 type  1   force =     0.00073102    0.00000000    0.09417372
     atom   20 type  1   force =    -0.00077542    0.00001087   -0.09423117
     atom   21 type  1   force =     0.00125814    0.00000000   -0.01354471
     atom   22 type  1   force =     0.00007201    0.00000116   -0.00247320
     atom   23 type  1   force =    -0.00006880    0.00000000    0.00254632
     atom   24 type  1   force =    -0.00128624    0.00007818    0.01354681
     The ionic contribution  to forces
     atom    1 type  1   force =    -0.00212917   -0.00000002    8.53623548
     atom    2 type  1   force =     0.00279743   -0.00004368   -8.53578019
     atom    3 type  1   force =    -0.00439661    0.00000001   -5.39785643
     atom    4 type  1   force =    -0.00107639   -0.00130027   -1.90858725
     atom    5 type  1   force =     0.00097402   -0.00000002    1.90897543
     atom    6 type  1   force =     0.00371863   -0.00231895    5.39737090
     atom    7 type  1   force =    -0.00213063    0.00000004    8.53520806
     atom    8 type  1   force =     0.00279743    0.00004366   -8.53578012
     atom    9 type  1   force =    -0.00345083    0.00000002   -5.39723966
     atom   10 type  1   force =    -0.00107639    0.00130025   -1.90858717
     atom   11 type  1   force =     0.00124201    0.00000004    1.90873193
     atom   12 type  1   force =     0.00371864    0.00231893    5.39737110
     atom   13 type  1   force =    -0.00416894   -0.00000002    8.53607921
     atom   14 type  1   force =     0.00365659   -0.00026287   -8.53572018
     atom   15 type  1   force =    -0.00410922    0.00000001   -5.39802999
     atom   16 type  1   force =    -0.00102529   -0.00085380   -1.90860106
     atom   17 type  1   force =     0.00087837   -0.00000002    1.90889205
     atom   18 type  1   force =     0.00474945   -0.00222897    5.39725519
     atom   19 type  1   force =    -0.00418182    0.00000004    8.53521315
     atom   20 type  1   force =     0.00365660    0.00026285   -8.53572009
     atom   21 type  1   force =    -0.00480157    0.00000002   -5.39725682
     atom   22 type  1   force =    -0.00102529    0.00085377   -1.90860098
     atom   23 type  1   force =     0.00063353    0.00000004    1.90917204
     atom   24 type  1   force =     0.00474945    0.00222894    5.39725540
     The local contribution  to forces
     atom    1 type  1   force =     0.00137834   -0.00004244   -8.64974503
     atom    2 type  1   force =    -0.00203364   -0.00002382    8.64924611
     atom    3 type  1   force =     0.00317462   -0.00004366    5.41561706
     atom    4 type  1   force =     0.00087900    0.00125101    1.91452629
     atom    5 type  1   force =    -0.00079189   -0.00004497   -1.91489809
     atom    6 type  1   force =    -0.00251195    0.00231083   -5.41509392
     atom    7 type  1   force =     0.00139784   -0.00004385   -8.64873467
     atom    8 type  1   force =    -0.00203132   -0.00006694    8.64924251
     atom    9 type  1   force =     0.00224485   -0.00004447    5.41498929
     atom   10 type  1   force =     0.00088946   -0.00133980    1.91452386
     atom   11 type  1   force =    -0.00106904   -0.00004172   -1.91465967
     atom   12 type  1   force =    -0.00250789   -0.00239756   -5.41509879
     atom   13 type  1   force =     0.00342599   -0.00004244   -8.64957383
     atom   14 type  1   force =    -0.00289670    0.00021528    8.64917869
     atom   15 type  1   force =     0.00286755   -0.00004366    5.41581464
     atom   16 type  1   force =     0.00081553    0.00080021    1.91452935
     atom   17 type  1   force =    -0.00072754   -0.00004497   -1.91480580
     atom   18 type  1   force =    -0.00350683    0.00222274   -5.41500707
     atom   19 type  1   force =     0.00343052   -0.00004385   -8.64874354
     atom   20 type  1   force =    -0.00289380   -0.00030603    8.64917448
     atom   21 type  1   force =     0.00360268   -0.00004447    5.41501580
     atom   22 type  1   force =     0.00082598   -0.00088899    1.91452693
     atom   23 type  1   force =    -0.00047007   -0.00004172   -1.91509747
     atom   24 type  1   force =    -0.00350276   -0.00230948   -5.41501195
     The core correction contribution to forces
     atom    1 type  1   force =     0.00000000    0.00000000    0.00000000
     atom    2 type  1   force =     0.00000000    0.00000000    0.00000000
     atom    3 type  1   force =     0.00000000    0.00000000    0.00000000
     atom    4 type  1   force =     0.00000000    0.00000000    0.00000000
     atom    5 type  1   force =     0.00000000    0.00000000    0.00000000
     atom    6 type  1   force =     0.00000000    0.00000000    0.00000000
     atom    7 type  1   force =     0.00000000    0.00000000    0.00000000
     atom    8 type  1   force =     0.00000000    0.00000000    0.00000000
     atom    9 type  1   force =     0.00000000    0.00000000    0.00000000
     atom   10 type  1   force =     0.00000000    0.00000000    0.00000000
     atom   11 type  1   force =     0.00000000    0.00000000    0.00000000
     atom   12 type  1   force =     0.00000000    0.00000000    0.00000000
     atom   13 type  1   force =     0.00000000    0.00000000    0.00000000
     atom   14 type  1   force =     0.00000000    0.00000000    0.00000000
     atom   15 type  1   force =     0.00000000    0.00000000    0.00000000
     atom   16 type  1   force =     0.00000000    0.00000000    0.00000000
     atom   17 type  1   force =     0.00000000    0.00000000    0.00000000
     atom   18 type  1   force =     0.00000000    0.00000000    0.00000000
     atom   19 type  1   force =     0.00000000    0.00000000    0.00000000
     atom   20 type  1   force =     0.00000000    0.00000000    0.00000000
     atom   21 type  1   force =     0.00000000    0.00000000    0.00000000
     atom   22 type  1   force =     0.00000000    0.00000000    0.00000000
     atom   23 type  1   force =     0.00000000    0.00000000    0.00000000
     atom   24 type  1   force =     0.00000000    0.00000000    0.00000000
     The Hubbard contrib.    to forces
     atom    1 type  1   force =     0.00000000    0.00000000    0.00000000
     atom    2 type  1   force =     0.00000000    0.00000000    0.00000000
     atom    3 type  1   force =     0.00000000    0.00000000    0.00000000
     atom    4 type  1   force =     0.00000000    0.00000000    0.00000000
     atom    5 type  1   force =     0.00000000    0.00000000    0.00000000
     atom    6 type  1   force =     0.00000000    0.00000000    0.00000000
     atom    7 type  1   force =     0.00000000    0.00000000    0.00000000
     atom    8 type  1   force =     0.00000000    0.00000000    0.00000000
     atom    9 type  1   force =     0.00000000    0.00000000    0.00000000
     atom   10 type  1   force =     0.00000000    0.00000000    0.00000000
     atom   11 type  1   force =     0.00000000    0.00000000    0.00000000
     atom   12 type  1   force =     0.00000000    0.00000000    0.00000000
     atom   13 type  1   force =     0.00000000    0.00000000    0.00000000
     atom   14 type  1   force =     0.00000000    0.00000000    0.00000000
     atom   15 type  1   force =     0.00000000    0.00000000    0.00000000
     atom   16 type  1   force =     0.00000000    0.00000000    0.00000000
     atom   17 type  1   force =     0.00000000    0.00000000    0.00000000
     atom   18 type  1   force =     0.00000000    0.00000000    0.00000000
     atom   19 type  1   force =     0.00000000    0.00000000    0.00000000
     atom   20 type  1   force =     0.00000000    0.00000000    0.00000000
     atom   21 type  1   force =     0.00000000    0.00000000    0.00000000
     atom   22 type  1   force =     0.00000000    0.00000000    0.00000000
     atom   23 type  1   force =     0.00000000    0.00000000    0.00000000
     atom   24 type  1   force =     0.00000000    0.00000000    0.00000000
     The SCF correction term to forces
     atom    1 type  1   force =     0.00000050   -0.00000000   -0.00000092
     atom    2 type  1   force =    -0.00000041    0.00000008    0.00000086
     atom    3 type  1   force =    -0.00000009   -0.00000000   -0.00000150
     atom    4 type  1   force =    -0.00000039    0.00000001   -0.00000040
     atom    5 type  1   force =     0.00000039   -0.00000000    0.00000040
     atom    6 type  1   force =     0.00000012    0.00000006    0.00000133
     atom    7 type  1   force =     0.00000054    0.00000000   -0.00000081
     atom    8 type  1   force =    -0.00000041   -0.00000008    0.00000086
     atom    9 type  1   force =    -0.00000011    0.00000000   -0.00000124
     atom   10 type  1   force =    -0.00000039   -0.00000001   -0.00000040
     atom   11 type  1   force =     0.00000042    0.00000000    0.00000045
     atom   12 type  1   force =     0.00000012   -0.00000006    0.00000133
     atom   13 type  1   force =     0.00000059   -0.00000000   -0.00000094
     atom   14 type  1   force =    -0.00000038    0.00000005    0.00000080
     atom   15 type  1   force =    -0.00000011   -0.00000000   -0.00000160
     atom   16 type  1   force =    -0.00000038    0.00000001   -0.00000041
     atom   17 type  1   force =     0.00000039   -0.00000000    0.00000047
     atom   18 type  1   force =     0.00000009    0.00000004    0.00000149
     atom   19 type  1   force =     0.00000048   -0.00000000   -0.00000079
     atom   20 type  1   force =    -0.00000038   -0.00000005    0.00000080
     atom   21 type  1   force =    -0.00000007    0.00000000   -0.00000121
     atom   22 type  1   force =    -0.00000038   -0.00000001   -0.00000041
     atom   23 type  1   force =     0.00000042    0.00000000    0.00000042
     atom   24 type  1   force =     0.00000009   -0.00000004    0.00000149

     Total force =     0.001096     Total SCF correction =     0.000005
     Energy error            =      1.2E-06 Ry
     Gradient error          =      2.5E-04 Ry/Bohr

     bfgs converged in  27 scf cycles and  26 bfgs steps
     (criteria: energy <  1.0E-05 Ry, force <  3.9E-04 Ry/Bohr)

     End of BFGS Geometry Optimization

     Final energy             =    -360.7823580334 Ry

     File ./Li/Lithium.bfgs deleted, as requested
Begin final coordinates

ATOMIC_POSITIONS (angstrom)
Li               3.1351981980        4.8580445300       27.0061701175
Li               0.8307984283        2.4289163816       20.0406494334
Li               2.0397237639        4.8580445600       21.5036785573
Li               3.0238986086        2.4296082434       22.7651306227
Li               0.9427813946        4.8580445800       24.2807220135
Li               1.9272262536        2.4298132899       25.5425408084
Li               3.1352912940        9.7160883600       27.0070252130
Li               0.8307983883        7.2871727784       20.0406494934
Li               2.0392267458        9.7160883800       21.5035204932
Li               3.0238984286        7.2864808966       22.7651306627
Li               0.9426744217        9.7160883300       24.2798242755
Li               1.9272261836        7.2862758201       25.5425408883
Li               6.1113294515        4.8580445300       27.0060949887
Li               3.8052072219        2.4289800110       20.0406327353
Li               5.0146161337        4.8580445600       21.5037043508
Li               5.9988244686        2.4294004911       22.7651069846
Li               3.9180402221        4.8580445800       24.2805625864
Li               4.9014277048        2.4297877569       25.5422366624
Li               6.1115379611        9.7160883600       27.0071274009
Li               3.8052071719        7.2871091490       20.0406328053
Li               5.0148276035        9.7160883800       21.5036731721
Li               5.9988242886        7.2866886489       22.7651070246
Li               3.9180998403        9.7160883300       24.2801198596
Li               4.9014276348        7.2863013531       25.5422367424
End final coordinates

     Writing all to output data dir ./Li/Lithium.save/ :
     XML data file

     General routines

     Parallel routines

     PAW routines

     Environ routines

   This run was terminated on:  13:26:42   2Jan2025

   JOB DONE.