     Program PWSCF v.7.4 starts on  6Jan2025 at 13:35:36
        Git branch: develop
        Last git commit: e877ff360aceba4b8d76ffc2fb1c70545fc5dd57
        Last git commit date: Sat Jan 4 12:56:15 2025 +0000
        Last git commit subject: Merge branch 'orthoU' into 'develop'

     Reading input from espresso.pwi
Warning: card &CELL ignored
Warning: card    PRESS_CONV_THR   = 0.1 ignored
Warning: card    CELL_DOFREE      = 'ALL' ignored
Warning: card / ignored
Warning: card &FCP ignored
Warning: card / ignored
Warning: card &RISM ignored
Warning: card / ignored

     Current dimensions of program PWSCF are:
     Max number of different atomic species (ntypx) = 10
     Max number of k-points (npk) =  40000
     Max angular momentum in pseudopotentials (lmaxx) =  4

     IMPORTANT: XC functional enforced from input :
     Exchange-correlation= PBE
                           (   1   4   3   4   0   0   0)
     Any further DFT definition will be discarded
     Please, verify this is what you really want

     Reading input from environ.in:
     * using ionic solvent mode
     * setting boundary derivatives method to SSCS default
     * setting electrolyte-boundary derivatives method to SSCS default

Environ Warning (1001): card EOF ignored

     Found identity + ( -0.5000  0.0000 -0.0000) symmetry
     This is a supercell, fractional translations are disabled

     K-points division:     npool     =       2
     R & G space division:  proc/nbgrp/npool/nimage =     180
     Subspace diagonalization in iterative solution of the eigenvalue problem:
     a serial algorithm will be used

     Using Slab Decomposition

     bravais-lattice index     =            4
     lattice parameter (alat)  =      18.3607  a.u.
     unit-cell volume          =   28251.3786 (a.u.)^3
     number of atoms/cell      =           48
     number of atomic types    =            1
     number of electrons       =       144.00
     number of Kohn-Sham states=          108
     kinetic-energy cutoff     =      80.0000  Ry
     charge density cutoff     =     800.0000  Ry
     scf convergence threshold =      1.0E-06
     mixing beta               =       0.2000
     number of iterations used =            8  local-TF  mixing
     energy convergence thresh.=      1.0E-05
     force convergence thresh. =      3.9E-04
     Exchange-correlation= PBE
                           (   1   4   3   4   0   0   0)
     nstep                     =          999

                                  Environ Setup Summary

          O. Andreussi, I. Dabo and N. Marzari, J. Chem. Phys. 136, 064102 (2012)
          F. Nattino, M. Truscott, N. Marzari, and O. Andreussi, J. Chem. Phys. 150, 041722 (2019)

     in publications or presentations arising from this work.

     Parameters

     compensation onset threshold      =               0.1000E+00
     static permittivity               =                    89.90
     surface tension in input (dyn/cm) =                    37.30
     surface tension in internal units =               0.4792E-04

     Solvent Boundary

     solvent mode                      =                    ionic
     derivatives method                =                   lowmem
     electrolyte derivatives method    =                   lowmem
     numerical core for derivatives    =                      fft
     switching function adopted        =                     SCCS
     density limit for vacuum region   =               0.5000E-02
     density limit for bulk solvent    =               0.1000E-03
     soft-sphere radius mode           =                    bondi
     soft-sphere softness              =                     0.50
     alpha                             =                     1.32

     Electrostatic Setup

     electrostatic problem to solve    =                    modpb
     numerical solver adopted          =                   newton
     type of auxiliary density adopted =                     none
     numerical core for poisson        =                      fft
     adopting a nested solver scheme
     inner solver                      =                       cg
     inner core                        =                      fft
     type of pbc corrections           =                parabolic
     numerical core for corrections    =                      1da

     >>>>> Grand-Canonical SCF is activated <<<<<
     Initial Total Charge  =     0.000000 e
     Target Fermi Energy   =    -4.404000 eV
     Thr. of Fermi Energy  =     0.001000 eV
     Wave-shift of Kerker  =     0.400000 bohr^-1
     Wave-shift of Hartree =     1.500000 bohr^-1
     Mixing Rate of Fermi  =     0.050000

     celldm(1)=  18.360747  celldm(2)=   0.000000  celldm(3)=   5.270332
     celldm(4)=   0.000000  celldm(5)=   0.000000  celldm(6)=   0.000000

     crystal axes: (cart. coord. in units of alat)
               a(1) = (   1.000000   0.000000   0.000000 )
               a(2) = (  -0.500000   0.866025   0.000000 )
               a(3) = (   0.000000   0.000000   5.270332 )

     reciprocal axes: (cart. coord. in units 2 pi/alat)
               b(1) = (  1.000000  0.577350  0.000000 )
               b(2) = (  0.000000  1.154701  0.000000 )
               b(3) = (  0.000000  0.000000  0.189741 )

     PseudoPot. # 1 for Li read from file:
     /home/mmm1182/Repos/Pseudopotentials/pslibrary/Li.pbe-sl-kjpaw_psl.1.0.0.UPF
     MD5 check sum: f40bb4162937df3f7c561f1969c76545
     Pseudo is Projector augmented-wave, Zval =  3.0
     Generated using 'atomic' code by A. Dal Corso  v.7.3.1
     Shape of augmentation charge: PSQ
     Using radial grid of 1017 points,  4 beta functions with:
                l(1) =   0
                l(2) =   0
                l(3) =   1
                l(4) =   1
     Q(r) pseudized with 0 coefficients

     atomic species   valence    mass     pseudopotential
     Li                3.00     6.94000     Li( 1.00)

      2 Sym. Ops. (no inversion) found

                                    s                        frac. trans.

      isym =  1     identity

 cryst.   s( 1) = (     1          0          0      )
                  (     0          1          0      )
                  (     0          0          1      )

 cart.    s( 1) = (  1.0000000  0.0000000  0.0000000 )
                  (  0.0000000  1.0000000  0.0000000 )
                  (  0.0000000  0.0000000  1.0000000 )

      isym =  2     inv. 180 deg rotation - cart. axis [1,0,0]

 cryst.   s( 2) = (    -1          0          0      )
                  (     1          1          0      )
                  (     0          0          1      )

 cart.    s( 2) = ( -1.0000000  0.0000000  0.0000000 )
                  (  0.0000000  1.0000000  0.0000000 )
                  (  0.0000000  0.0000000  1.0000000 )

     point group C_s (m)
     there are  2 classes
     the character table:

       E     s
A'     1.00  1.00
A''    1.00 -1.00

     the symmetry operations in each class and the name of the first element:

     E        1
          identity
     s        2
          inv. 180 deg rotation - cart. axis [1,0,0]

   Cartesian axes

     site n.     atom                  positions (alat units)
         1        Li     tau(   1) = (  -0.0000000  -0.0000009   2.5896260  )
         2        Li     tau(   2) = (   0.2499979   0.1443410   2.1911062  )
         3        Li     tau(   3) = (   0.5000000   0.2886783   2.3634461  )
         4        Li     tau(   4) = (   0.0000000  -0.0000014   2.2786732  )
         5        Li     tau(   5) = (   0.2500011   0.1443401   2.4852499  )
         6        Li     tau(   6) = (   0.5000000   0.2886597   2.0366082  )
         7        Li     tau(   7) = (   0.0000000  -0.0000096   3.2336419  )
         8        Li     tau(   8) = (   0.2500014   0.1443349   2.7851220  )
         9        Li     tau(   9) = (   0.5000000   0.2886710   2.9916746  )
        10        Li     tau(  10) = (  -0.0000000  -0.0000003   2.9068854  )
        11        Li     tau(  11) = (   0.2500010   0.1443349   3.0792422  )
        12        Li     tau(  12) = (   0.5000000   0.2886756   2.6807400  )
        13        Li     tau(  13) = (   0.2499986   0.4330142   2.5896253  )
        14        Li     tau(  14) = (   0.5000000   0.5773516   2.1910851  )
        15        Li     tau(  15) = (   0.7500000   0.7216917   2.3634468  )
        16        Li     tau(  16) = (   0.2499985   0.4330179   2.2786716  )
        17        Li     tau(  17) = (   0.5000000   0.5773494   2.4852371  )
        18        Li     tau(  18) = (   0.7500000   0.7217071   2.0366065  )
        19        Li     tau(  19) = (   0.2499955   0.4330165   3.2336480  )
        20        Li     tau(  20) = (   0.5000000   0.5773512   2.7851135  )
        21        Li     tau(  21) = (   0.7499989   0.7216857   2.9916708  )
        22        Li     tau(  22) = (   0.2499988   0.4330097   2.9068875  )
        23        Li     tau(  23) = (   0.5000000   0.5773442   3.0792353  )
        24        Li     tau(  24) = (   0.7500012   0.7216888   2.6807368  )
        25        Li     tau(  25) = (   0.5000000  -0.0000008   2.5896259  )
        26        Li     tau(  26) = (   0.7500021   0.1443410   2.1911062  )
        27        Li     tau(  27) = (   1.0000000   0.2886754   2.3634483  )
        28        Li     tau(  28) = (   0.5000000   0.0000037   2.2786716  )
        29        Li     tau(  29) = (   0.7499989   0.1443401   2.4852499  )
        30        Li     tau(  30) = (   1.0000000   0.2886632   2.0366090  )
        31        Li     tau(  31) = (   0.5000000  -0.0000103   3.2336424  )
        32        Li     tau(  32) = (   0.7499986   0.1443349   2.7851221  )
        33        Li     tau(  33) = (   1.0000000   0.2886725   2.9916819  )
        34        Li     tau(  34) = (   0.5000000  -0.0000030   2.9068831  )
        35        Li     tau(  35) = (   0.7499990   0.1443349   3.0792422  )
        36        Li     tau(  36) = (   1.0000000   0.2886713   2.6807441  )
        37        Li     tau(  37) = (   0.7500014   0.4330142   2.5896253  )
        38        Li     tau(  38) = (   1.0000000   0.5773555   2.1910856  )
        39        Li     tau(  39) = (   1.2500000   0.7216917   2.3634468  )
        40        Li     tau(  40) = (   0.7500015   0.4330179   2.2786716  )
        41        Li     tau(  41) = (   1.0000000   0.5773499   2.4852361  )
        42        Li     tau(  42) = (   1.2500000   0.7217072   2.0366065  )
        43        Li     tau(  43) = (   0.7500045   0.4330165   3.2336480  )
        44        Li     tau(  44) = (   1.0000000   0.5773467   2.7851108  )
        45        Li     tau(  45) = (   1.2500011   0.7216857   2.9916708  )
        46        Li     tau(  46) = (   0.7500012   0.4330097   2.9068875  )
        47        Li     tau(  47) = (   1.0000000   0.5773495   3.0792274  )
        48        Li     tau(  48) = (   1.2499988   0.7216888   2.6807368  )

   Crystallographic axes

     site n.     atom                  positions (cryst. coord.)
         1        Li     tau(   1) = ( -0.0000005 -0.0000010  0.4913592  )
         2        Li     tau(   2) = (  0.3333332  0.1666706  0.4157435  )
[...]
     atom   28 type  1   force =     0.00000312    0.00026764    8.36539322
     atom   29 type  1   force =    -0.00006788    0.00018318    3.47453330
     atom   30 type  1   force =     0.00000862   -0.00002841   12.41055646
     atom   31 type  1   force =     0.00000256   -0.00006227  -12.41152211
     atom   32 type  1   force =     0.00016587    0.00014427   -3.47571644
     atom   33 type  1   force =     0.00000334   -0.00011085   -8.36359658
     atom   34 type  1   force =     0.00000254    0.00008637   -6.31304644
     atom   35 type  1   force =     0.00022610    0.00000239  -10.34185674
     atom   36 type  1   force =     0.00000392   -0.00010262   -1.03932722
     atom   37 type  1   force =    -0.00019767   -0.00016864    1.04114280
     atom   38 type  1   force =     0.00000277    0.00002819   10.33984047
     atom   39 type  1   force =     0.00010598    0.00001855    6.30420551
     atom   40 type  1   force =    -0.00019344   -0.00014279    8.36548826
     atom   41 type  1   force =     0.00000335   -0.00014657    3.47493761
     atom   42 type  1   force =    -0.00002752    0.00005050   12.41056129
     atom   43 type  1   force =     0.00008172    0.00001957  -12.41160170
     atom   44 type  1   force =     0.00000335   -0.00023774   -3.47529724
     atom   45 type  1   force =     0.00021785   -0.00000903   -8.36332713
     atom   46 type  1   force =    -0.00000392   -0.00007763   -6.31301889
     atom   47 type  1   force =     0.00000335   -0.00013880  -10.34136200
     atom   48 type  1   force =     0.00023517   -0.00003430   -1.03916184
     The core correction contribution to forces
     atom    1 type  1   force =     0.00000000    0.00000000    0.00000000
     atom    2 type  1   force =     0.00000000    0.00000000    0.00000000
     atom    3 type  1   force =     0.00000000    0.00000000    0.00000000
     atom    4 type  1   force =     0.00000000    0.00000000    0.00000000
     atom    5 type  1   force =     0.00000000    0.00000000    0.00000000
     atom    6 type  1   force =     0.00000000    0.00000000    0.00000000
     atom    7 type  1   force =     0.00000000    0.00000000    0.00000000
     atom    8 type  1   force =     0.00000000    0.00000000    0.00000000
     atom    9 type  1   force =     0.00000000    0.00000000    0.00000000
     atom   10 type  1   force =     0.00000000    0.00000000    0.00000000
     atom   11 type  1   force =     0.00000000    0.00000000    0.00000000
     atom   12 type  1   force =     0.00000000    0.00000000    0.00000000
     atom   13 type  1   force =     0.00000000    0.00000000    0.00000000
     atom   14 type  1   force =     0.00000000    0.00000000    0.00000000
     atom   15 type  1   force =     0.00000000    0.00000000    0.00000000
     atom   16 type  1   force =     0.00000000    0.00000000    0.00000000
     atom   17 type  1   force =     0.00000000    0.00000000    0.00000000
     atom   18 type  1   force =     0.00000000    0.00000000    0.00000000
     atom   19 type  1   force =     0.00000000    0.00000000    0.00000000
     atom   20 type  1   force =     0.00000000    0.00000000    0.00000000
     atom   21 type  1   force =     0.00000000    0.00000000    0.00000000
     atom   22 type  1   force =     0.00000000    0.00000000    0.00000000
     atom   23 type  1   force =     0.00000000    0.00000000    0.00000000
     atom   24 type  1   force =     0.00000000    0.00000000    0.00000000
     atom   25 type  1   force =     0.00000000    0.00000000    0.00000000
     atom   26 type  1   force =     0.00000000    0.00000000    0.00000000
     atom   27 type  1   force =     0.00000000    0.00000000    0.00000000
     atom   28 type  1   force =     0.00000000    0.00000000    0.00000000
     atom   29 type  1   force =     0.00000000    0.00000000    0.00000000
     atom   30 type  1   force =     0.00000000    0.00000000    0.00000000
     atom   31 type  1   force =     0.00000000    0.00000000    0.00000000
     atom   32 type  1   force =     0.00000000    0.00000000    0.00000000
     atom   33 type  1   force =     0.00000000    0.00000000    0.00000000
     atom   34 type  1   force =     0.00000000    0.00000000    0.00000000
     atom   35 type  1   force =     0.00000000    0.00000000    0.00000000
     atom   36 type  1   force =     0.00000000    0.00000000    0.00000000
     atom   37 type  1   force =     0.00000000    0.00000000    0.00000000
     atom   38 type  1   force =     0.00000000    0.00000000    0.00000000
     atom   39 type  1   force =     0.00000000    0.00000000    0.00000000
     atom   40 type  1   force =     0.00000000    0.00000000    0.00000000
     atom   41 type  1   force =     0.00000000    0.00000000    0.00000000
     atom   42 type  1   force =     0.00000000    0.00000000    0.00000000
     atom   43 type  1   force =     0.00000000    0.00000000    0.00000000
     atom   44 type  1   force =     0.00000000    0.00000000    0.00000000
     atom   45 type  1   force =     0.00000000    0.00000000    0.00000000
     atom   46 type  1   force =     0.00000000    0.00000000    0.00000000
     atom   47 type  1   force =     0.00000000    0.00000000    0.00000000
     atom   48 type  1   force =     0.00000000    0.00000000    0.00000000
     The Hubbard contrib.    to forces
     atom    1 type  1   force =     0.00000000    0.00000000    0.00000000
     atom    2 type  1   force =     0.00000000    0.00000000    0.00000000
     atom    3 type  1   force =     0.00000000    0.00000000    0.00000000
     atom    4 type  1   force =     0.00000000    0.00000000    0.00000000
     atom    5 type  1   force =     0.00000000    0.00000000    0.00000000
     atom    6 type  1   force =     0.00000000    0.00000000    0.00000000
     atom    7 type  1   force =     0.00000000    0.00000000    0.00000000
     atom    8 type  1   force =     0.00000000    0.00000000    0.00000000
     atom    9 type  1   force =     0.00000000    0.00000000    0.00000000
     atom   10 type  1   force =     0.00000000    0.00000000    0.00000000
     atom   11 type  1   force =     0.00000000    0.00000000    0.00000000
     atom   12 type  1   force =     0.00000000    0.00000000    0.00000000
     atom   13 type  1   force =     0.00000000    0.00000000    0.00000000
     atom   14 type  1   force =     0.00000000    0.00000000    0.00000000
     atom   15 type  1   force =     0.00000000    0.00000000    0.00000000
     atom   16 type  1   force =     0.00000000    0.00000000    0.00000000
     atom   17 type  1   force =     0.00000000    0.00000000    0.00000000
     atom   18 type  1   force =     0.00000000    0.00000000    0.00000000
     atom   19 type  1   force =     0.00000000    0.00000000    0.00000000
     atom   20 type  1   force =     0.00000000    0.00000000    0.00000000
     atom   21 type  1   force =     0.00000000    0.00000000    0.00000000
     atom   22 type  1   force =     0.00000000    0.00000000    0.00000000
     atom   23 type  1   force =     0.00000000    0.00000000    0.00000000
     atom   24 type  1   force =     0.00000000    0.00000000    0.00000000
     atom   25 type  1   force =     0.00000000    0.00000000    0.00000000
     atom   26 type  1   force =     0.00000000    0.00000000    0.00000000
     atom   27 type  1   force =     0.00000000    0.00000000    0.00000000
     atom   28 type  1   force =     0.00000000    0.00000000    0.00000000
     atom   29 type  1   force =     0.00000000    0.00000000    0.00000000
     atom   30 type  1   force =     0.00000000    0.00000000    0.00000000
     atom   31 type  1   force =     0.00000000    0.00000000    0.00000000
     atom   32 type  1   force =     0.00000000    0.00000000    0.00000000
     atom   33 type  1   force =     0.00000000    0.00000000    0.00000000
     atom   34 type  1   force =     0.00000000    0.00000000    0.00000000
     atom   35 type  1   force =     0.00000000    0.00000000    0.00000000
     atom   36 type  1   force =     0.00000000    0.00000000    0.00000000
     atom   37 type  1   force =     0.00000000    0.00000000    0.00000000
     atom   38 type  1   force =     0.00000000    0.00000000    0.00000000
     atom   39 type  1   force =     0.00000000    0.00000000    0.00000000
     atom   40 type  1   force =     0.00000000    0.00000000    0.00000000
     atom   41 type  1   force =     0.00000000    0.00000000    0.00000000
     atom   42 type  1   force =     0.00000000    0.00000000    0.00000000
     atom   43 type  1   force =     0.00000000    0.00000000    0.00000000
     atom   44 type  1   force =     0.00000000    0.00000000    0.00000000
     atom   45 type  1   force =     0.00000000    0.00000000    0.00000000
     atom   46 type  1   force =     0.00000000    0.00000000    0.00000000
     atom   47 type  1   force =     0.00000000    0.00000000    0.00000000
     atom   48 type  1   force =     0.00000000    0.00000000    0.00000000
     The SCF correction term to forces
     atom    1 type  1   force =    -0.00000000   -0.00000007    0.00000032
     atom    2 type  1   force =     0.00000005   -0.00000008    0.00000098
     atom    3 type  1   force =    -0.00000000   -0.00000008    0.00000272
     atom    4 type  1   force =    -0.00000000   -0.00000006    0.00000262
     atom    5 type  1   force =     0.00000005   -0.00000014    0.00000011
     atom    6 type  1   force =     0.00000000   -0.00000004   -0.00000437
     atom    7 type  1   force =    -0.00000000   -0.00000004    0.00000258
     atom    8 type  1   force =     0.00000002   -0.00000015    0.00000013
     atom    9 type  1   force =    -0.00000000   -0.00000005   -0.00000048
     atom   10 type  1   force =    -0.00000000   -0.00000005   -0.00000364
     atom   11 type  1   force =    -0.00000002   -0.00000006   -0.00000076
     atom   12 type  1   force =    -0.00000000   -0.00000010   -0.00000017
     atom   13 type  1   force =    -0.00000001    0.00000008    0.00000031
     atom   14 type  1   force =    -0.00000000    0.00000001    0.00000100
     atom   15 type  1   force =     0.00000006    0.00000005    0.00000285
     atom   16 type  1   force =    -0.00000000    0.00000003    0.00000241
     atom   17 type  1   force =     0.00000000    0.00000011    0.00000012
     atom   18 type  1   force =     0.00000001    0.00000000   -0.00000437
     atom   19 type  1   force =    -0.00000002    0.00000004    0.00000260
     atom   20 type  1   force =    -0.00000000    0.00000014    0.00000016
     atom   21 type  1   force =     0.00000003    0.00000005   -0.00000057
     atom   22 type  1   force =    -0.00000004    0.00000009   -0.00000362
     atom   23 type  1   force =    -0.00000000    0.00000010   -0.00000073
     atom   24 type  1   force =     0.00000006    0.00000006   -0.00000017
     atom   25 type  1   force =     0.00000000   -0.00000010    0.00000032
     atom   26 type  1   force =    -0.00000005   -0.00000008    0.00000098
     atom   27 type  1   force =     0.00000000   -0.00000001    0.00000276
     atom   28 type  1   force =    -0.00000000   -0.00000006    0.00000265
     atom   29 type  1   force =    -0.00000005   -0.00000014    0.00000011
     atom   30 type  1   force =     0.00000000   -0.00000002   -0.00000443
     atom   31 type  1   force =    -0.00000000   -0.00000003    0.00000260
     atom   32 type  1   force =    -0.00000002   -0.00000015    0.00000013
     atom   33 type  1   force =    -0.00000000   -0.00000002   -0.00000046
     atom   34 type  1   force =     0.00000000   -0.00000010   -0.00000369
     atom   35 type  1   force =     0.00000002   -0.00000006   -0.00000076
     atom   36 type  1   force =     0.00000000   -0.00000003   -0.00000012
     atom   37 type  1   force =     0.00000001    0.00000008    0.00000031
     atom   38 type  1   force =    -0.00000000    0.00000007    0.00000103
     atom   39 type  1   force =    -0.00000006    0.00000005    0.00000285
     atom   40 type  1   force =     0.00000000    0.00000003    0.00000241
     atom   41 type  1   force =    -0.00000000    0.00000017    0.00000014
     atom   42 type  1   force =    -0.00000001    0.00000000   -0.00000437
     atom   43 type  1   force =     0.00000002    0.00000004    0.00000260
     atom   44 type  1   force =    -0.00000000    0.00000016    0.00000014
     atom   45 type  1   force =    -0.00000003    0.00000005   -0.00000057
     atom   46 type  1   force =     0.00000004    0.00000009   -0.00000362
     atom   47 type  1   force =     0.00000000    0.00000008   -0.00000080
     atom   48 type  1   force =    -0.00000006    0.00000006   -0.00000017

     Total force =     0.001596     Total SCF correction =     0.000015
     Energy error            =      1.6E-07 Ry
     Gradient error          =      3.9E-04 Ry/Bohr

     bfgs converged in  24 scf cycles and  22 bfgs steps
     (criteria: energy <  1.0E-05 Ry, force <  3.9E-04 Ry/Bohr)

     End of BFGS Geometry Optimization

     Final energy             =    -722.0780092527 Ry

     File ./Li/Lithium.bfgs deleted, as requested
Begin final coordinates

ATOMIC_POSITIONS (angstrom)
Li              -0.0000000100        0.0000243850       25.1713049069
Li               2.4290837121        1.4024895012       21.2660701023
Li               4.8580444100        2.8048444104       22.9509798054
Li               0.0000000100        0.0000028007       22.1480749463
Li               2.4290596176        1.4024867879       24.1405011501
Li               4.8580445000        2.8046307630       19.6049121220
Li               0.0000000000       -0.0001172891       31.6093004286
Li               2.4289570002        1.4024388447       27.0705038861
Li               4.8580444100        2.8048047875       29.0501460316
Li              -0.0000000100        0.0000235119       28.2550310977
Li               2.4289387336        1.4023815297       29.9336720626
Li               4.8580444200        2.8048667630       26.0418946626
Li               2.4290907938        4.2071276990       25.1712276434
Li               4.8580443900        5.6095095125       21.2658592552
Li               7.2870293508        7.0120207513       22.9509370593
Li               2.4290901124        4.2071885611       22.1480563595
Li               4.8580444100        5.6095008345       24.1403570309
Li               7.2870790898        7.0121774361       19.6049549471
Li               2.4289367745        4.2072631655       31.6093174806
Li               4.8580444000        5.6095546700       27.0703703429
Li               7.2869568366        7.0119607605       29.0502009695
Li               2.4290101851        4.2071327817       28.2549657659
Li               4.8580444000        5.6095633928       29.9335035372
Li               7.2869774912        7.0119557736       26.0419469985
Li               4.8580444000        0.0001079199       25.1712367262
Li               7.2870051079        1.4024894812       21.2660702523
Li               9.7160888200        2.8047667936       22.9510020029
Li               4.8580443900        0.0001199814       22.1480132221
Li               7.2870292024        1.4024867879       24.1405012301
Li               9.7160887400        2.8047042997       19.6049331027
Li               4.8580444000       -0.0001584449       31.6093097957
Li               7.2871318198        1.4024388447       27.0705039361
Li               9.7160888300        2.8047140542       29.0502799084
Li               4.8580444000        0.0000047471       28.2550153501
Li               7.2871500864        1.4023815197       29.9336721026
Li               9.7160888200        2.8047538663       26.0420469048
Li               7.2869980163        4.2071277090       25.1712276434
Li               9.7160888400        5.6095992898       21.2658056260
Li              12.1451482993        7.0120207613       22.9509370693
Li               7.2869986976        4.2071885811       22.1480563695
Li               9.7160888300        5.6095328298       24.1403212775
Li              12.1450985602        7.0121775461       19.6049549571
Li               7.2871520355        4.2072631755       31.6093174706
Li               9.7160888300        5.6094812956       27.0703641051
Li              12.1452208135        7.0119607605       29.0502009695
Li               7.2870786349        4.2071327817       28.2549657558
Li               9.7160888300        5.6095109996       29.9334892106
Li              12.1452001688        7.0119557836       26.0419469985
End final coordinates

     Writing all to output data dir ./Li/Lithium.save/ :
     XML data file

     General routines

     Parallel routines

     PAW routines

     Environ routines

   This run was terminated on:  20:55:33   6Jan2025

   JOB DONE.