     Program PWSCF v.7.4 starts on  3Jan2025 at 11:48: 6

     Reading input from espresso.pwi
Warning: card &CELL ignored
Warning: card    PRESS_CONV_THR   = 0.1 ignored
Warning: card    CELL_DOFREE      = 'ALL' ignored
Warning: card / ignored
Warning: card &FCP ignored
Warning: card / ignored
Warning: card &RISM ignored
Warning: card / ignored

     Current dimensions of program PWSCF are:
     Max number of different atomic species (ntypx) = 10
     Max number of k-points (npk) =  40000
     Max angular momentum in pseudopotentials (lmaxx) =  4

     IMPORTANT: XC functional enforced from input :
     Exchange-correlation= PBE
                           (   1   4   3   4   0   0   0)
     Any further DFT definition will be discarded
     Please, verify this is what you really want

     Reading input from environ.in:
     * using ionic solvent mode
     * setting boundary derivatives method to SSCS default
     * setting electrolyte-boundary derivatives method to SSCS default

Environ Warning (1001): card EOF ignored

     K-points division:     npool     =       2
     R & G space division:  proc/nbgrp/npool/nimage =     256
     Subspace diagonalization in iterative solution of the eigenvalue problem:
     one sub-group per band group will be used

     Using Slab Decomposition

     bravais-lattice index     =           12
     lattice parameter (alat)  =      18.3607  a.u.
     unit-cell volume          =   35212.2554 (a.u.)^3
     number of atoms/cell      =           68
     number of atomic types    =            1
     number of electrons       =       204.00
     number of Kohn-Sham states=          153
     kinetic-energy cutoff     =      80.0000  Ry
     charge density cutoff     =     800.0000  Ry
     scf convergence threshold =      1.0E-06
     mixing beta               =       0.2000
     number of iterations used =            8  local-TF  mixing
     energy convergence thresh.=      1.0E-05
     force convergence thresh. =      3.9E-04
     Exchange-correlation= PBE
                           (   1   4   3   4   0   0   0)
     nstep                     =          999

                                  Environ Setup Summary

          O. Andreussi, I. Dabo and N. Marzari, J. Chem. Phys. 136, 064102 (2012)
          F. Nattino, M. Truscott, N. Marzari, and O. Andreussi, J. Chem. Phys. 150, 041722 (2019)

     in publications or presentations arising from this work.

     Parameters

     compensation onset threshold      =               0.1000E+00
     static permittivity               =                    89.90
     surface tension in input (dyn/cm) =                    37.30
     surface tension in internal units =               0.4792E-04

     Solvent Boundary

     solvent mode                      =                    ionic
     derivatives method                =                   lowmem
     electrolyte derivatives method    =                   lowmem
     numerical core for derivatives    =                      fft
     switching function adopted        =                     SCCS
     density limit for vacuum region   =               0.5000E-02
     density limit for bulk solvent    =               0.1000E-03
     soft-sphere radius mode           =                    bondi
     soft-sphere softness              =                     0.50
     alpha                             =                     1.32

     Electrostatic Setup

     electrostatic problem to solve    =                    modpb
     numerical solver adopted          =                   newton
     type of auxiliary density adopted =                     none
     numerical core for poisson        =                      fft
     adopting a nested solver scheme
     inner solver                      =                       cg
     inner core                        =                      fft
     type of pbc corrections           =                parabolic
     numerical core for corrections    =                      1da

     >>>>> Grand-Canonical SCF is activated <<<<<
     Initial Total Charge  =     0.000000 e
     Target Fermi Energy   =    -2.904000 eV
     Thr. of Fermi Energy  =     0.001000 eV
     Wave-shift of Kerker  =     0.400000 bohr^-1
     Wave-shift of Hartree =     1.500000 bohr^-1
     Mixing Rate of Fermi  =     0.050000

     celldm(1)=  18.360747  celldm(2)=   1.060660  celldm(3)=   5.518976
     celldm(4)=  -0.235702  celldm(5)=   0.000000  celldm(6)=   0.000000

     crystal axes: (cart. coord. in units of alat)
               a(1) = (   1.000000   0.000000   0.000000 )
               a(2) = (  -0.250000   1.030776   0.000000 )
               a(3) = (   0.000000   0.000000   5.518976 )

     reciprocal axes: (cart. coord. in units 2 pi/alat)
               b(1) = (  1.000000  0.242536 -0.000000 )
               b(2) = (  0.000000  0.970143  0.000000 )
               b(3) = (  0.000000 -0.000000  0.181193 )

     PseudoPot. # 1 for Li read from file:
     /work/e89/e89/ba3g18/Repos/Pseudopotentials/Pslibrary/Li.pbe-sl-kjpaw_psl.1.0.0.UPF
     MD5 check sum: 3f4d2cafebb47c6c3aa8ed472e6f074d
     Pseudo is Projector augmented-wave, Zval =  3.0
     Generated using 'atomic' code by A. Dal Corso  v.7.4
     Shape of augmentation charge: PSQ
     Using radial grid of 1017 points,  4 beta functions with:
                l(1) =   0
                l(2) =   0
                l(3) =   1
                l(4) =   1
     Q(r) pseudized with 0 coefficients

     atomic species   valence    mass     pseudopotential
     Li                3.00     6.94000     Li( 1.00)

     No symmetry found

                                    s                        frac. trans.

      isym =  1     identity

 cryst.   s( 1) = (     1          0          0      )
                  (     0          1          0      )
                  (     0          0          1      )

 cart.    s( 1) = (  1.0000000  0.0000000  0.0000000 )
                  (  0.0000000  1.0000000  0.0000000 )
                  (  0.0000000  0.0000000  1.0000000 )

     point group C_1 (1)
     there are  1 classes
     the character table:

       E
A      1.00

     the symmetry operations in each class and the name of the first element:

     E        1
          identity

   Cartesian axes

     site n.     atom                  positions (alat units)
         1        Li     tau(   1) = (  -0.0003679   0.0433998   2.0563519  )
         2        Li     tau(   2) = (   0.0002351   0.6022761   3.4289479  )
         3        Li     tau(   3) = (   0.2501900   0.7902280   3.2601035  )
         4        Li     tau(   4) = (   0.2503536   0.1931280   3.2922704  )
         5        Li     tau(   5) = (   0.0002536   0.3645612   3.1717414  )
         6        Li     tau(   6) = (   0.2501062   0.5522532   2.9926474  )
         7        Li     tau(   7) = (   0.2499580   0.9089890   2.6493999  )
         8        Li     tau(   8) = (   0.0002288   0.9678959   3.0941836  )
         9        Li     tau(   9) = (   0.0001508   0.1217782   2.9086789  )
        10        Li     tau(  10) = (   0.2499194   0.3076469   2.7224121  )
        11        Li     tau(  11) = (  -0.0001730   0.4823383   2.5656155  )
        12        Li     tau(  12) = (   0.2498623   0.6642702   2.3817689  )
        13        Li     tau(  13) = (   0.0000424   0.7251320   2.8307205  )
        14        Li     tau(  14) = (   0.2498150   0.0533825   2.5056114  )
        15        Li     tau(  15) = (  -0.0003224   0.2441062   2.3118827  )
        16        Li     tau(  16) = (   0.2498466   0.3935431   2.1186106  )
        17        Li     tau(  17) = (  -0.0002494   0.8498761   2.2319724  )
        18        Li     tau(  18) = (   0.0003132   0.0590648   3.2070930  )
        19        Li     tau(  19) = (   0.0001383   0.6696755   3.1372075  )
        20        Li     tau(  20) = (   0.2501725   0.8516071   2.9533612  )
        21        Li     tau(  21) = (   0.2501847   0.2497847   3.0133724  )
        22        Li     tau(  22) = (   0.0000411   0.4249565   2.8695769  )
        23        Li     tau(  23) = (   0.2499578   0.6088138   2.6882550  )
        24        Li     tau(  24) = (   0.2497458   0.9693844   2.3472356  )
        25        Li     tau(  25) = (   0.0000803   1.0262978   2.7965697  )
        26        Li     tau(  26) = (  -0.0001536   0.1813908   2.6102959  )
        27        Li     tau(  27) = (   0.2497716   0.3660488   2.4247954  )
        28        Li     tau(  28) = (  -0.0001886   0.5437189   2.2588734  )
        29        Li     tau(  29) = (   0.2497648   0.7316663   2.0900275  )
        30        Li     tau(  30) = (  -0.0001066   0.7816918   2.5263271  )
        31        Li     tau(  31) = (   0.2496468   0.1100436   2.2267201  )
        32        Li     tau(  32) = (   0.0004173   0.2597764   3.4626236  )
        33        Li     tau(  33) = (   0.2502503   0.4840719   3.2870016  )
        34        Li     tau(  34) = (   0.0001515   0.9403968   3.4003656  )
        35        Li     tau(  35) = (   0.4995650   0.0433908   2.0563526  )
        36        Li     tau(  36) = (   0.5002415   0.6022704   3.4289524  )
        37        Li     tau(  37) = (   0.7501975   0.7902296   3.2601033  )
        38        Li     tau(  38) = (   0.7503537   0.1931318   3.2922932  )
        39        Li     tau(  39) = (   0.5002517   0.3645616   3.1717404  )
        40        Li     tau(  40) = (   0.7501030   0.5522535   2.9926417  )
        41        Li     tau(  41) = (   0.7499609   0.9089902   2.6494011  )
        42        Li     tau(  42) = (   0.5002286   0.9678995   3.0941764  )
        43        Li     tau(  43) = (   0.5001534   0.1217788   2.9086805  )
        44        Li     tau(  44) = (   0.7499211   0.3076469   2.7224171  )
        45        Li     tau(  45) = (   0.4998259   0.4823385   2.5656142  )
        46        Li     tau(  46) = (   0.7498592   0.6642647   2.3817605  )
        47        Li     tau(  47) = (   0.5000437   0.7251323   2.8307264  )
        48        Li     tau(  48) = (   0.7498139   0.0533887   2.5055843  )
        49        Li     tau(  49) = (   0.4996908   0.2441043   2.3118827  )
        50        Li     tau(  50) = (   0.7498511   0.3935688   2.1186211  )
        51        Li     tau(  51) = (   0.4997483   0.8498687   2.2319842  )
        52        Li     tau(  52) = (   0.5003195   0.0590641   3.2070936  )
        53        Li     tau(  53) = (   0.5001396   0.6696808   3.1372152  )
        54        Li     tau(  54) = (   0.7501747   0.8516078   2.9533615  )
        55        Li     tau(  55) = (   0.7501859   0.2497843   3.0133838  )
        56        Li     tau(  56) = (   0.5000394   0.4249559   2.8695748  )
        57        Li     tau(  57) = (   0.7499563   0.6088140   2.6882504  )
        58        Li     tau(  58) = (   0.7497485   0.9693845   2.3472349  )
        59        Li     tau(  59) = (   0.5000786   1.0263003   2.7965537  )
        60        Li     tau(  60) = (   0.4998489   0.1813918   2.6102974  )
        61        Li     tau(  61) = (   0.7497715   0.3660468   2.4247970  )
        62        Li     tau(  62) = (   0.4998007   0.5437147   2.2588718  )
[...]
     atom   59 type  1   force =     0.00000000    0.00000000    0.00000000
     atom   60 type  1   force =     0.00000000    0.00000000    0.00000000
     atom   61 type  1   force =     0.00000000    0.00000000    0.00000000
     atom   62 type  1   force =     0.00000000    0.00000000    0.00000000
     atom   63 type  1   force =     0.00000000    0.00000000    0.00000000
     atom   64 type  1   force =     0.00000000    0.00000000    0.00000000
     atom   65 type  1   force =     0.00000000    0.00000000    0.00000000
     atom   66 type  1   force =     0.00000000    0.00000000    0.00000000
     atom   67 type  1   force =     0.00000000    0.00000000    0.00000000
     atom   68 type  1   force =     0.00000000    0.00000000    0.00000000
     The Hubbard contrib.    to forces
     atom    1 type  1   force =     0.00000000    0.00000000    0.00000000
     atom    2 type  1   force =     0.00000000    0.00000000    0.00000000
     atom    3 type  1   force =     0.00000000    0.00000000    0.00000000
     atom    4 type  1   force =     0.00000000    0.00000000    0.00000000
     atom    5 type  1   force =     0.00000000    0.00000000    0.00000000
     atom    6 type  1   force =     0.00000000    0.00000000    0.00000000
     atom    7 type  1   force =     0.00000000    0.00000000    0.00000000
     atom    8 type  1   force =     0.00000000    0.00000000    0.00000000
     atom    9 type  1   force =     0.00000000    0.00000000    0.00000000
     atom   10 type  1   force =     0.00000000    0.00000000    0.00000000
     atom   11 type  1   force =     0.00000000    0.00000000    0.00000000
     atom   12 type  1   force =     0.00000000    0.00000000    0.00000000
     atom   13 type  1   force =     0.00000000    0.00000000    0.00000000
     atom   14 type  1   force =     0.00000000    0.00000000    0.00000000
     atom   15 type  1   force =     0.00000000    0.00000000    0.00000000
     atom   16 type  1   force =     0.00000000    0.00000000    0.00000000
     atom   17 type  1   force =     0.00000000    0.00000000    0.00000000
     atom   18 type  1   force =     0.00000000    0.00000000    0.00000000
     atom   19 type  1   force =     0.00000000    0.00000000    0.00000000
     atom   20 type  1   force =     0.00000000    0.00000000    0.00000000
     atom   21 type  1   force =     0.00000000    0.00000000    0.00000000
     atom   22 type  1   force =     0.00000000    0.00000000    0.00000000
     atom   23 type  1   force =     0.00000000    0.00000000    0.00000000
     atom   24 type  1   force =     0.00000000    0.00000000    0.00000000
     atom   25 type  1   force =     0.00000000    0.00000000    0.00000000
     atom   26 type  1   force =     0.00000000    0.00000000    0.00000000
     atom   27 type  1   force =     0.00000000    0.00000000    0.00000000
     atom   28 type  1   force =     0.00000000    0.00000000    0.00000000
     atom   29 type  1   force =     0.00000000    0.00000000    0.00000000
     atom   30 type  1   force =     0.00000000    0.00000000    0.00000000
     atom   31 type  1   force =     0.00000000    0.00000000    0.00000000
     atom   32 type  1   force =     0.00000000    0.00000000    0.00000000
     atom   33 type  1   force =     0.00000000    0.00000000    0.00000000
     atom   34 type  1   force =     0.00000000    0.00000000    0.00000000
     atom   35 type  1   force =     0.00000000    0.00000000    0.00000000
     atom   36 type  1   force =     0.00000000    0.00000000    0.00000000
     atom   37 type  1   force =     0.00000000    0.00000000    0.00000000
     atom   38 type  1   force =     0.00000000    0.00000000    0.00000000
     atom   39 type  1   force =     0.00000000    0.00000000    0.00000000
     atom   40 type  1   force =     0.00000000    0.00000000    0.00000000
     atom   41 type  1   force =     0.00000000    0.00000000    0.00000000
     atom   42 type  1   force =     0.00000000    0.00000000    0.00000000
     atom   43 type  1   force =     0.00000000    0.00000000    0.00000000
     atom   44 type  1   force =     0.00000000    0.00000000    0.00000000
     atom   45 type  1   force =     0.00000000    0.00000000    0.00000000
     atom   46 type  1   force =     0.00000000    0.00000000    0.00000000
     atom   47 type  1   force =     0.00000000    0.00000000    0.00000000
     atom   48 type  1   force =     0.00000000    0.00000000    0.00000000
     atom   49 type  1   force =     0.00000000    0.00000000    0.00000000
     atom   50 type  1   force =     0.00000000    0.00000000    0.00000000
     atom   51 type  1   force =     0.00000000    0.00000000    0.00000000
     atom   52 type  1   force =     0.00000000    0.00000000    0.00000000
     atom   53 type  1   force =     0.00000000    0.00000000    0.00000000
     atom   54 type  1   force =     0.00000000    0.00000000    0.00000000
     atom   55 type  1   force =     0.00000000    0.00000000    0.00000000
     atom   56 type  1   force =     0.00000000    0.00000000    0.00000000
     atom   57 type  1   force =     0.00000000    0.00000000    0.00000000
     atom   58 type  1   force =     0.00000000    0.00000000    0.00000000
     atom   59 type  1   force =     0.00000000    0.00000000    0.00000000
     atom   60 type  1   force =     0.00000000    0.00000000    0.00000000
     atom   61 type  1   force =     0.00000000    0.00000000    0.00000000
     atom   62 type  1   force =     0.00000000    0.00000000    0.00000000
     atom   63 type  1   force =     0.00000000    0.00000000    0.00000000
     atom   64 type  1   force =     0.00000000    0.00000000    0.00000000
     atom   65 type  1   force =     0.00000000    0.00000000    0.00000000
     atom   66 type  1   force =     0.00000000    0.00000000    0.00000000
     atom   67 type  1   force =     0.00000000    0.00000000    0.00000000
     atom   68 type  1   force =     0.00000000    0.00000000    0.00000000
     The SCF correction term to forces
     atom    1 type  1   force =     0.00000088   -0.00000844   -0.00012884
     atom    2 type  1   force =    -0.00000079   -0.00000290    0.00013104
     atom    3 type  1   force =     0.00000098   -0.00001568    0.00010966
     atom    4 type  1   force =     0.00000078    0.00001508    0.00015008
     atom    5 type  1   force =    -0.00000160    0.00004694    0.00002151
     atom    6 type  1   force =     0.00000112    0.00001485   -0.00000340
     atom    7 type  1   force =     0.00000002   -0.00004115   -0.00000587
     atom    8 type  1   force =    -0.00000057   -0.00004705   -0.00001275
     atom    9 type  1   force =     0.00000003   -0.00001662   -0.00001093
     atom   10 type  1   force =    -0.00000077    0.00002795    0.00000538
     atom   11 type  1   force =    -0.00000094    0.00004918    0.00001760
     atom   12 type  1   force =     0.00000082    0.00004676    0.00002113
     atom   13 type  1   force =    -0.00000230    0.00000840   -0.00001569
     atom   14 type  1   force =    -0.00000114   -0.00007478    0.00003739
     atom   15 type  1   force =     0.00000105    0.00000766   -0.00004462
     atom   16 type  1   force =     0.00000061    0.00000589   -0.00014453
     atom   17 type  1   force =    -0.00000070   -0.00001757   -0.00008236
     atom   18 type  1   force =    -0.00000003   -0.00002849    0.00007008
     atom   19 type  1   force =    -0.00000212   -0.00001565    0.00000372
     atom   20 type  1   force =     0.00000076   -0.00003225   -0.00001872
     atom   21 type  1   force =     0.00000030    0.00004158   -0.00001728
     atom   22 type  1   force =    -0.00000182    0.00004961    0.00000443
     atom   23 type  1   force =     0.00000008    0.00003224    0.00000679
     atom   24 type  1   force =     0.00000036   -0.00005339    0.00001711
     atom   25 type  1   force =    -0.00000171   -0.00005553   -0.00002113
     atom   26 type  1   force =     0.00000138   -0.00002457    0.00001024
     atom   27 type  1   force =     0.00000001    0.00003643    0.00002424
     atom   28 type  1   force =    -0.00000048    0.00003226   -0.00008519
     atom   29 type  1   force =     0.00000096    0.00001307   -0.00011251
     atom   30 type  1   force =    -0.00000179    0.00001520    0.00002104
     atom   31 type  1   force =    -0.00000013   -0.00003753   -0.00011524
     atom   32 type  1   force =    -0.00000039    0.00000248    0.00014687
     atom   33 type  1   force =     0.00000130    0.00002537    0.00012403
     atom   34 type  1   force =    -0.00000026   -0.00000687    0.00015236
     atom   35 type  1   force =     0.00000019   -0.00000837   -0.00012817
     atom   36 type  1   force =    -0.00000042   -0.00000279    0.00013060
     atom   37 type  1   force =     0.00000029   -0.00001590    0.00010918
     atom   38 type  1   force =     0.00000057    0.00001542    0.00014976
     atom   39 type  1   force =    -0.00000122    0.00004734    0.00002230
     atom   40 type  1   force =     0.00000161    0.00001525   -0.00000360
     atom   41 type  1   force =     0.00000255   -0.00004107   -0.00000482
     atom   42 type  1   force =     0.00000011   -0.00004760   -0.00001222
     atom   43 type  1   force =    -0.00000076   -0.00001678   -0.00001033
     atom   44 type  1   force =     0.00000168    0.00002930    0.00000623
     atom   45 type  1   force =    -0.00000081    0.00004886    0.00001679
     atom   46 type  1   force =     0.00000179    0.00004663    0.00002169
     atom   47 type  1   force =    -0.00000020    0.00000860   -0.00001462
     atom   48 type  1   force =    -0.00000102   -0.00007453    0.00003746
     atom   49 type  1   force =    -0.00000048    0.00000711   -0.00004512
     atom   50 type  1   force =    -0.00000015    0.00000615   -0.00014476
     atom   51 type  1   force =    -0.00000170   -0.00001849   -0.00008326
     atom   52 type  1   force =    -0.00000061   -0.00002857    0.00007067
     atom   53 type  1   force =    -0.00000047   -0.00001509    0.00000406
     atom   54 type  1   force =     0.00000091   -0.00003251   -0.00001925
     atom   55 type  1   force =     0.00000206    0.00004275   -0.00001726
     atom   56 type  1   force =    -0.00000062    0.00005038    0.00000515
     atom   57 type  1   force =     0.00000230    0.00003303    0.00000744
     atom   58 type  1   force =     0.00000244   -0.00005392    0.00001795
     atom   59 type  1   force =     0.00000062   -0.00005559   -0.00002000
     atom   60 type  1   force =    -0.00000080   -0.00002500    0.00000885
     atom   61 type  1   force =     0.00000047    0.00003759    0.00002434
     atom   62 type  1   force =    -0.00000083    0.00003181   -0.00008608
     atom   63 type  1   force =     0.00000034    0.00001298   -0.00011265
     atom   64 type  1   force =    -0.00000080    0.00001487    0.00002074
     atom   65 type  1   force =    -0.00000151   -0.00003754   -0.00011643
     atom   66 type  1   force =    -0.00000086    0.00000249    0.00014690
     atom   67 type  1   force =     0.00000101    0.00002602    0.00012319
     atom   68 type  1   force =    -0.00000014   -0.00000747    0.00015235

     Total force =     0.001707     Total SCF correction =     0.000693
     SCF correction compared to forces is large: reduce conv_thr to get better values
     Energy error            =      3.6E-06 Ry
     Gradient error          =      3.5E-04 Ry/Bohr

     bfgs converged in   2 scf cycles and   1 bfgs steps
     (criteria: energy <  1.0E-05 Ry, force <  3.9E-04 Ry/Bohr)

     End of BFGS Geometry Optimization

     Final energy             =   -1022.5411696629 Ry

     File ./Li/Lithium.bfgs deleted, as requested
Begin final coordinates

ATOMIC_POSITIONS (angstrom)
Li              -0.0035739598        0.4216571787       19.9796307364
Li               0.0022849799        5.8517876053       33.3160445285
Li               2.4308648003        7.6779468921       31.6755859310
Li               2.4324551967        1.8764554832       31.9878960409
Li               0.0024686893        3.5419130822       30.8169949205
Li               2.4300497825        5.3658126351       29.0768547411
Li               2.4286118036        8.8317198255       25.7419606764
Li               0.0022246984        9.4041729947       30.0635814450
Li               0.0014665293        1.1831712220       28.2609405035
Li               2.4282372432        2.9890696441       26.4511432631
Li              -0.0016786451        4.6864338785       24.9277778391
Li               2.4276820718        6.4541253704       23.1415282603
Li               0.0004146858        7.0454542479       27.5036580403
Li               2.4272279519        0.5186584642       24.3447365414
Li              -0.0031324641        2.3717270863       22.4625290888
Li               2.4275330856        3.8237060537       20.5846693346
Li              -0.0024180131        8.2574003068       21.6859727804
Li               0.0030433623        0.5739094087       31.1603423711
Li               0.0013464128        6.5066085769       30.4813364289
Li               2.4306960551        8.2742968449       28.6950589580
Li               2.4308134098        2.4269428488       29.2781773809
Li               0.0004015301        4.1290137596       27.8808666242
Li               2.4286099421        5.9152783725       26.1191552048
Li               2.4265478146        9.4188225317       22.8058799931
Li               0.0007821941        9.9716573901       27.1717284436
Li              -0.0014940620        1.7624483606       25.3618719625
Li               2.4268016438        3.5565511565       23.5593020093
Li              -0.0018296421        5.2828002319       21.9473079651
Li               2.4267363292        7.1089165956       20.3068628529
Li              -0.0010314437        7.5949142257       24.5459664804
Li               2.4255934554        1.0691872253       21.6351341640
Li               0.0040541871        2.5240281045       33.6432815300
Li               2.4314489790        4.7033571733       31.9368952770
Li               0.0014704164        9.1369710918       33.0382440953
Li               4.8538175470        0.4215700326       19.9796373247
Li               4.8603920131        5.8517316603       33.3160884619
Li               7.2889827483        7.6779624358       31.6755847314
Li               7.2905003850        1.8764920403       31.9881178278
Li               4.8604944206        3.5419171971       30.8169850979
Li               7.2880624511        5.3658149699       29.0767997344
Li               7.2866843988        8.8317316959       25.7419726775
Li               4.8602661633        9.4042088278       30.0635113308
Li               4.8595364589        1.1831772817       28.2609565900
Li               7.2862984711        2.9890700488       26.4511925898
Li               4.8563554863        4.6864361089       24.9277659497
Li               7.2856959904        6.4540727145       23.1414473426
Li               4.8584714455        7.0454578304       27.5037158979
Li               7.2852617260        0.5187186462       24.3444722349
Li               4.8550398023        2.3717089400       22.4625295542
Li               7.2856215829        3.8239560136       20.5847711268
Li               4.8556044728        8.2573289428       21.6860885014
Li               4.8611488166        0.5739022339       31.1603476509
Li               4.8594034784        6.5066597701       30.4814114184
Li               7.2887609968        8.2743031403       28.6950620260
Li               7.2888691154        2.4269387845       29.2782889921
Li               4.8584299807        4.1290076716       27.8808468860
Li               7.2866395498        5.9152797348       26.1191101615
Li               7.2846183678        9.4188229207       22.8058734034
Li               4.8588097436        9.9716812206       27.1715734341
Li               4.8565746222        1.7624584728       25.3618868609
Li               7.2848455112        3.5565318844       23.5593176595
Li               4.8561110772        5.2827589833       21.9472932995
Li               7.2847115210        7.1090375942       20.3068318395
Li               4.8570476375        7.5949325193       24.5460524622
Li               7.2836410066        1.0691129251       21.6346272732
Li               4.8618066821        2.5239893993       33.6432747368
Li               7.2894907114        4.7033861963       31.9368185247
Li               4.8595065969        9.1368341660       33.0381398633
End final coordinates

     Writing all to output data dir ./Li/Lithium.save/ :
     XML data file

     General routines

     Parallel routines

     PAW routines

     Environ routines

   This run was terminated on:  13: 6:47   3Jan2025

   JOB DONE.