     Program PWSCF v.7.4 starts on 21Jan2025 at 10:58:18

     Reading input from espresso.pwi
Warning: card &CELL ignored
Warning: card    PRESS_CONV_THR   = 0.1 ignored
Warning: card    CELL_DOFREE      = 'ALL' ignored
Warning: card / ignored
Warning: card &FCP ignored
Warning: card / ignored
Warning: card &RISM ignored
Warning: card / ignored

     Current dimensions of program PWSCF are:
     Max number of different atomic species (ntypx) = 10
     Max number of k-points (npk) =  40000
     Max angular momentum in pseudopotentials (lmaxx) =  4

     IMPORTANT: XC functional enforced from input :
     Exchange-correlation= PBE
                           (   1   4   3   4   0   0   0)
     Any further DFT definition will be discarded
     Please, verify this is what you really want

     Reading input from environ.in:
     * using ionic solvent mode
     * setting boundary derivatives method to SSCS default
     * setting electrolyte-boundary derivatives method to SSCS default

Environ Warning (1001): card EOF ignored

     Found identity + (  0.5000 -0.0000  0.0000) symmetry
     This is a supercell, fractional translations are disabled

     K-points division:     npool     =       2
     R & G space division:  proc/nbgrp/npool/nimage =     256
     Subspace diagonalization in iterative solution of the eigenvalue problem:
     a serial algorithm will be used

     Using Slab Decomposition

     bravais-lattice index     =           12
     lattice parameter (alat)  =      11.2436  a.u.
     unit-cell volume          =   15431.5264 (a.u.)^3
     number of atoms/cell      =           28
     number of atomic types    =            1
     number of electrons       =        84.00
     number of Kohn-Sham states=           63
     kinetic-energy cutoff     =      80.0000  Ry
     charge density cutoff     =     800.0000  Ry
     scf convergence threshold =      1.0E-16
     mixing beta               =       0.2000
     number of iterations used =            8  local-TF  mixing
     Exchange-correlation= PBE
                           (   1   4   3   4   0   0   0)

                                  Environ Setup Summary

          O. Andreussi, I. Dabo and N. Marzari, J. Chem. Phys. 136, 064102 (2012)
          F. Nattino, M. Truscott, N. Marzari, and O. Andreussi, J. Chem. Phys. 150, 041722 (2019)

     in publications or presentations arising from this work.

     Parameters

     compensation onset threshold      =               0.1000E+00
     static permittivity               =                    89.90
     surface tension in input (dyn/cm) =                    37.30
     surface tension in internal units =               0.4792E-04

     Solvent Boundary

     solvent mode                      =                    ionic
     derivatives method                =                   lowmem
     electrolyte derivatives method    =                   lowmem
     numerical core for derivatives    =                      fft
     switching function adopted        =                     SCCS
     density limit for vacuum region   =               0.5000E-02
     density limit for bulk solvent    =               0.1000E-03
     soft-sphere radius mode           =                    bondi
     soft-sphere softness              =                     0.50
     alpha                             =                     1.32

     Electrostatic Setup

     electrostatic problem to solve    =                    modpb
     numerical solver adopted          =                   newton
     type of auxiliary density adopted =                     none
     numerical core for poisson        =                      fft
     adopting a nested solver scheme
     inner solver                      =                       cg
     inner core                        =                      fft
     type of pbc corrections           =                parabolic
     numerical core for corrections    =                      1da

     >>>>> Grand-Canonical SCF is activated <<<<<
     Initial Total Charge  =     0.000000 e
     Target Fermi Energy   =    -5.404000 eV
     Thr. of Fermi Energy  =     0.001000 eV
     Wave-shift of Kerker  =     0.400000 bohr^-1
     Wave-shift of Hartree =     1.500000 bohr^-1
     Mixing Rate of Fermi  =     0.050000

     celldm(1)=  11.243615  celldm(2)=   1.258306  celldm(3)=   8.704589
     celldm(4)=  -0.132454  celldm(5)=   0.000000  celldm(6)=   0.000000

     crystal axes: (cart. coord. in units of alat)
               a(1) = (   1.000000   0.000000   0.000000 )
               a(2) = (  -0.166667   1.247219   0.000000 )
               a(3) = (   0.000000   0.000000   8.704589 )

     reciprocal axes: (cart. coord. in units 2 pi/alat)
               b(1) = (  1.000000  0.133631 -0.000000 )
               b(2) = (  0.000000  0.801784  0.000000 )
               b(3) = (  0.000000 -0.000000  0.114882 )

     PseudoPot. # 1 for Li read from file:
     /work/e89/e89/ba3g18/Repos/Pseudopotentials/Pslibrary/Li.pbe-sl-kjpaw_psl.1.0.0.UPF
     MD5 check sum: 3f4d2cafebb47c6c3aa8ed472e6f074d
     Pseudo is Projector augmented-wave, Zval =  3.0
     Generated using 'atomic' code by A. Dal Corso  v.7.4
     Shape of augmentation charge: PSQ
     Using radial grid of 1017 points,  4 beta functions with:
                l(1) =   0
                l(2) =   0
                l(3) =   1
                l(4) =   1
     Q(r) pseudized with 0 coefficients

     atomic species   valence    mass     pseudopotential
     Li                3.00     6.94000     Li( 1.00)

     No symmetry found

                                    s                        frac. trans.

      isym =  1     identity

 cryst.   s( 1) = (     1          0          0      )
                  (     0          1          0      )
                  (     0          0          1      )

 cart.    s( 1) = (  1.0000000  0.0000000  0.0000000 )
                  (  0.0000000  1.0000000  0.0000000 )
                  (  0.0000000  0.0000000  1.0000000 )

     point group C_1 (1)
     there are  1 classes
     the character table:

       E
A      1.00

     the symmetry operations in each class and the name of the first element:

     E        1
          identity

   Cartesian axes

     site n.     atom                  positions (alat units)
         1        Li     tau(   1) = (   0.0599344  -0.0445970   5.4187987  )
         2        Li     tau(   2) = (  -0.0599374   0.8463799   3.2857899  )
         3        Li     tau(   3) = (   0.1262756   0.3639351   3.4806753  )
         4        Li     tau(   4) = (   0.1554776   1.1495454   3.6780445  )
         5        Li     tau(   5) = (   0.3380434   0.7080797   3.7667775  )
         6        Li     tau(   6) = (   0.0005796   0.2719101   3.9635760  )
         7        Li     tau(   7) = (  -0.0287933   1.0600242   4.1181129  )
         8        Li     tau(   8) = (   0.1835885   0.6306761   4.2662643  )
         9        Li     tau(   9) = (   0.3164117   0.1711075   4.4383252  )
        10        Li     tau(  10) = (   0.3621260   0.9889785   4.5864763  )
        11        Li     tau(  11) = (  -0.0005805   0.5298738   4.7410138  )
        12        Li     tau(  12) = (   0.1619574   0.0937040   4.9378122  )
        13        Li     tau(  13) = (   0.1778554   0.8994580   5.0265448  )
        14        Li     tau(  14) = (   0.3737284   0.4378494   5.2239150  )
        15        Li     tau(  15) = (   0.5599341  -0.0445974   5.4187997  )
        16        Li     tau(  16) = (   0.4400652   0.8463797   3.2857904  )
        17        Li     tau(  17) = (   0.6262742   0.3639351   3.4806750  )
        18        Li     tau(  18) = (   0.6554774   1.1495450   3.6780442  )
        19        Li     tau(  19) = (   0.8380435   0.7080800   3.7667773  )
        20        Li     tau(  20) = (   0.5005795   0.2719099   3.9635757  )
        21        Li     tau(  21) = (   0.4712067   1.0600243   4.1181131  )
        22        Li     tau(  22) = (   0.6835886   0.6306761   4.2662642  )
        23        Li     tau(  23) = (   0.8164116   0.1711075   4.4383253  )
        24        Li     tau(  24) = (   0.8621259   0.9889785   4.5864763  )
        25        Li     tau(  25) = (   0.4994193   0.5298737   4.7410136  )
        26        Li     tau(  26) = (   0.6619576   0.0937040   4.9378126  )
        27        Li     tau(  27) = (   0.6778552   0.8994579   5.0265447  )
        28        Li     tau(  28) = (   0.8737280   0.4378496   5.2239151  )

   Crystallographic axes

     site n.     atom                  positions (cryst. coord.)
         1        Li     tau(   1) = (  0.0539749 -0.0357572  0.6225221  )
         2        Li     tau(   2) = (  0.0531651  0.6786137  0.3774779  )
         3        Li     tau(   3) = (  0.1749086  0.2917972  0.3998667  )
         4        Li     tau(   4) = (  0.3090924  0.9216869  0.4225409  )
         5        Li     tau(   5) = (  0.4326648  0.5677269  0.4327347  )
         6        Li     tau(   6) = (  0.0369152  0.2180131  0.4553433  )
         7        Li     tau(   7) = (  0.1128587  0.8499103  0.4730968  )
         8        Li     tau(   8) = (  0.2678663  0.5056659  0.4901167  )
         9        Li     tau(   9) = (  0.3392769  0.1371912  0.5098834  )
        10        Li     tau(  10) = (  0.4942841  0.7929469  0.5269033  )
        11        Li     tau(  11) = (  0.0702270  0.4248442  0.5446568  )
        12        Li     tau(  12) = (  0.1744791  0.0751304  0.5672654  )
        13        Li     tau(  13) = (  0.2980508  0.7211708  0.5774592  )
        14        Li     tau(  14) = (  0.4322386  0.3510605  0.6001334  )
        15        Li     tau(  15) = (  0.5539745 -0.0357575  0.6225222  )
        16        Li     tau(  16) = (  0.5531677  0.6786136  0.3774779  )
        17        Li     tau(  17) = (  0.6749072  0.2917972  0.3998667  )
        18        Li     tau(  18) = (  0.8090922  0.9216866  0.4225408  )
        19        Li     tau(  19) = (  0.9326649  0.5677271  0.4327347  )
        20        Li     tau(  20) = (  0.5369150  0.2180129  0.4553432  )
        21        Li     tau(  21) = (  0.6128587  0.8499103  0.4730968  )
        22        Li     tau(  22) = (  0.7678664  0.5056659  0.4901167  )
        23        Li     tau(  23) = (  0.8392769  0.1371912  0.5098834  )
        24        Li     tau(  24) = (  0.9942840  0.7929470  0.5269033  )
        25        Li     tau(  25) = (  0.5702268  0.4248442  0.5446568  )
        26        Li     tau(  26) = (  0.6744794  0.0751304  0.5672655  )
        27        Li     tau(  27) = (  0.7980506  0.7211708  0.5774592  )
        28        Li     tau(  28) = (  0.9322383  0.3510607  0.6001335  )

     number of k points=    50  Marzari-Vanderbilt smearing, width (Ry)=  0.0100
                       cart. coord. in units 2pi/alat
        k(    1) = (   0.0000000   0.0000000   0.0000000), wk =   0.0202020
        k(    2) = (   0.0000000   0.0890871   0.0000000), wk =   0.0404040
        k(    3) = (   0.0000000   0.1781742   0.0000000), wk =   0.0404040
        k(    4) = (   0.0000000   0.2672613   0.0000000), wk =   0.0404040
        k(    5) = (   0.0000000   0.3563484   0.0000000), wk =   0.0404040
[...]
     atom   12 type  1   force =     0.00004667   -0.00098767    0.07501464
     atom   13 type  1   force =    -0.00013871   -0.01831710    0.11388974
     atom   14 type  1   force =    -0.00009158    0.03726846    0.09316977
     atom   15 type  1   force =     0.00006117   -0.02400062   -0.00317094
     atom   16 type  1   force =    -0.00006142    0.02400070    0.00317117
     atom   17 type  1   force =     0.00009162   -0.03726869   -0.09316892
     atom   18 type  1   force =     0.00013870    0.01831721   -0.11388912
     atom   19 type  1   force =    -0.00004663    0.00098774   -0.07501378
     atom   20 type  1   force =    -0.00002274   -0.00486194   -0.06191605
     atom   21 type  1   force =     0.00002814    0.00221732   -0.03662681
     atom   22 type  1   force =    -0.00002465   -0.00024089   -0.01159753
     atom   23 type  1   force =     0.00002465    0.00024089    0.01159830
     atom   24 type  1   force =    -0.00002814   -0.00221731    0.03662753
     atom   25 type  1   force =     0.00002275    0.00486190    0.06191678
     atom   26 type  1   force =     0.00004668   -0.00098768    0.07501467
     atom   27 type  1   force =    -0.00013869   -0.01831707    0.11388975
     atom   28 type  1   force =    -0.00009153    0.03726846    0.09316974

     Forces acting on atoms (cartesian axes, Ry/au):

     atom    1 type  1   force =     0.00009827    0.00013239    0.00297080
     atom    2 type  1   force =    -0.00009746   -0.00013234   -0.00297079
     atom    3 type  1   force =     0.00001595    0.00020576   -0.00062976
     atom    4 type  1   force =    -0.00013423   -0.00035983    0.00143375
     atom    5 type  1   force =     0.00034256    0.00001002    0.00143087
     atom    6 type  1   force =    -0.00022146    0.00005647   -0.00022319
     atom    7 type  1   force =     0.00004096    0.00026194   -0.00035990
     atom    8 type  1   force =     0.00014940   -0.00013045    0.00004123
     atom    9 type  1   force =    -0.00014944    0.00013045   -0.00004123
     atom   10 type  1   force =    -0.00004104   -0.00026190    0.00035992
     atom   11 type  1   force =     0.00022140   -0.00005649    0.00022312
     atom   12 type  1   force =    -0.00034229   -0.00000989   -0.00143080
     atom   13 type  1   force =     0.00013405    0.00035963   -0.00143384
     atom   14 type  1   force =    -0.00001654   -0.00020579    0.00062967
     atom   15 type  1   force =     0.00009846    0.00013238    0.00297086
     atom   16 type  1   force =    -0.00009907   -0.00013233   -0.00297077
     atom   17 type  1   force =     0.00001681    0.00020577   -0.00062968
     atom   18 type  1   force =    -0.00013411   -0.00035967    0.00143391
     atom   19 type  1   force =     0.00034237    0.00000989    0.00143076
     atom   20 type  1   force =    -0.00022135    0.00005655   -0.00022309
     atom   21 type  1   force =     0.00004095    0.00026194   -0.00035995
     atom   22 type  1   force =     0.00014936   -0.00013048    0.00004123
     atom   23 type  1   force =    -0.00014941    0.00013050   -0.00004120
     atom   24 type  1   force =    -0.00004098   -0.00026194    0.00035991
     atom   25 type  1   force =     0.00022150   -0.00005651    0.00022316
     atom   26 type  1   force =    -0.00034243   -0.00000990   -0.00143084
     atom   27 type  1   force =     0.00013410    0.00035959   -0.00143386
     atom   28 type  1   force =    -0.00001632   -0.00020576    0.00062970
     The non-local contrib.  to forces
     atom    1 type  1   force =     0.00011303   -0.01873366    0.08351466
     atom    2 type  1   force =    -0.00011257    0.01873377   -0.08351453
     atom    3 type  1   force =     0.00036048   -0.02871882   -0.07606189
     atom    4 type  1   force =     0.00082120    0.01182692   -0.03801590
     atom    5 type  1   force =    -0.00111427   -0.00244397    0.00971346
     atom    6 type  1   force =     0.00006260    0.00019073    0.00651115
     atom    7 type  1   force =    -0.00028765   -0.00024844    0.00034363
     atom    8 type  1   force =     0.00065319   -0.00070221   -0.00093555
     atom    9 type  1   force =    -0.00065306    0.00070222    0.00093566
     atom   10 type  1   force =     0.00028754    0.00024836   -0.00034371
     atom   11 type  1   force =    -0.00006275   -0.00019080   -0.00651106
     atom   12 type  1   force =     0.00111450    0.00244400   -0.00971344
     atom   13 type  1   force =    -0.00082131   -0.01182717    0.03801522
     atom   14 type  1   force =    -0.00036063    0.02871853    0.07606182
     atom   15 type  1   force =     0.00011312   -0.01873364    0.08351442
     atom   16 type  1   force =    -0.00011343    0.01873397   -0.08351477
     atom   17 type  1   force =     0.00036119   -0.02871907   -0.07606172
     atom   18 type  1   force =     0.00082130    0.01182740   -0.03801561
     atom   19 type  1   force =    -0.00111441   -0.00244418    0.00971352
     atom   20 type  1   force =     0.00006274    0.00019077    0.00651131
     atom   21 type  1   force =    -0.00028767   -0.00024843    0.00034364
     atom   22 type  1   force =     0.00065321   -0.00070230   -0.00093546
     atom   23 type  1   force =    -0.00065309    0.00070226    0.00093561
     atom   24 type  1   force =     0.00028760    0.00024832   -0.00034371
     atom   25 type  1   force =    -0.00006267   -0.00019085   -0.00651107
     atom   26 type  1   force =     0.00111439    0.00244401   -0.00971353
     atom   27 type  1   force =    -0.00082132   -0.01182714    0.03801520
     atom   28 type  1   force =    -0.00036053    0.02871854    0.07606191
     The ionic contribution  to forces
     atom    1 type  1   force =     0.00056750   -0.20352270   13.10172033
     atom    2 type  1   force =    -0.00055501    0.20352561  -13.10172558
     atom    3 type  1   force =     0.00150382   -0.38103941  -11.68334914
     atom    4 type  1   force =    -0.00223201    0.22837700   -9.35798229
     atom    5 type  1   force =     0.00117922   -0.05035101   -7.77837393
     atom    6 type  1   force =    -0.00209882    0.01156862   -5.25706284
     atom    7 type  1   force =     0.00423633    0.02381127   -3.16273803
     atom    8 type  1   force =    -0.00154292   -0.07286660   -1.15744192
     atom    9 type  1   force =     0.00154248    0.07286704    1.15744445
     atom   10 type  1   force =    -0.00423665   -0.02381061    3.16273487
     atom   11 type  1   force =     0.00209631   -0.01157031    5.25706649
     atom   12 type  1   force =    -0.00117943    0.05035828    7.77837728
     atom   13 type  1   force =     0.00223094   -0.22838296    9.35797386
     atom   14 type  1   force =    -0.00151359    0.38103588   11.68335401
     atom   15 type  1   force =     0.00056993   -0.20352333   13.10172518
     atom   16 type  1   force =    -0.00058150    0.20352675  -13.10172386
     atom   17 type  1   force =     0.00151775   -0.38104251  -11.68335045
     atom   18 type  1   force =    -0.00223015    0.22838428   -9.35798254
     atom   19 type  1   force =     0.00118232   -0.05035545   -7.77837666
     atom   20 type  1   force =    -0.00209411    0.01156958   -5.25706420
     atom   21 type  1   force =     0.00423680    0.02381124   -3.16273640
     atom   22 type  1   force =    -0.00154301   -0.07286740   -1.15744417
     atom   23 type  1   force =     0.00154228    0.07286793    1.15744572
     atom   24 type  1   force =    -0.00423552   -0.02381137    3.16273388
     atom   25 type  1   force =     0.00209778   -0.01157103    5.25706381
     atom   26 type  1   force =    -0.00118156    0.05035791    7.77838324
     atom   27 type  1   force =     0.00223155   -0.22838288    9.35797303
     atom   28 type  1   force =    -0.00151069    0.38103617   11.68335586
     The local contribution  to forces
     atom    1 type  1   force =    -0.00064335    0.24638935  -13.17909397
     atom    2 type  1   force =     0.00063102   -0.24639239   13.17909776
     atom    3 type  1   force =    -0.00193979    0.44723259   11.85195033
     atom    4 type  1   force =     0.00113790   -0.25888081    9.51132116
     atom    5 type  1   force =     0.00032435    0.05181723    7.84510515
     atom    6 type  1   force =     0.00183754   -0.00684095    5.31224452
     atom    7 type  1   force =    -0.00393583   -0.02551822    3.19866134
     atom    8 type  1   force =     0.00106381    0.07367924    1.17001621
     atom    9 type  1   force =    -0.00106349   -0.07367970   -1.17001963
     atom   10 type  1   force =     0.00393624    0.02551764   -3.19865878
     atom   11 type  1   force =    -0.00183488    0.00684270   -5.31224912
     atom   12 type  1   force =    -0.00032400   -0.05182451   -7.84510927
     atom   13 type  1   force =    -0.00113684    0.25888685   -9.51131267
     atom   14 type  1   force =     0.00194928   -0.44722868  -11.85195594
     atom   15 type  1   force =    -0.00064573    0.24638995  -13.17909779
     atom   16 type  1   force =     0.00065730   -0.24639376   13.17909668
     atom   17 type  1   force =    -0.00195373    0.44723603   11.85195141
     atom   18 type  1   force =     0.00113607   -0.25888856    9.51132119
     atom   19 type  1   force =     0.00032112    0.05182176    7.84510769
     atom   20 type  1   force =     0.00183277   -0.00684187    5.31224585
     atom   21 type  1   force =    -0.00393630   -0.02551821    3.19865962
     atom   22 type  1   force =     0.00106384    0.07368010    1.17001838
     atom   23 type  1   force =    -0.00106322   -0.07368060   -1.17002082
     atom   24 type  1   force =     0.00393511    0.02551841   -3.19865779
     atom   25 type  1   force =    -0.00183633    0.00684346   -5.31224636
     atom   26 type  1   force =    -0.00032190   -0.05182417   -7.84511522
     atom   27 type  1   force =    -0.00113741    0.25888667   -9.51131184
     atom   28 type  1   force =     0.00194645   -0.44722894  -11.85195781
     The core correction contribution to forces
     atom    1 type  1   force =     0.00000000    0.00000000    0.00000000
     atom    2 type  1   force =     0.00000000    0.00000000    0.00000000
     atom    3 type  1   force =     0.00000000    0.00000000    0.00000000
     atom    4 type  1   force =     0.00000000    0.00000000    0.00000000
     atom    5 type  1   force =     0.00000000    0.00000000    0.00000000
     atom    6 type  1   force =     0.00000000    0.00000000    0.00000000
     atom    7 type  1   force =     0.00000000    0.00000000    0.00000000
     atom    8 type  1   force =     0.00000000    0.00000000    0.00000000
     atom    9 type  1   force =     0.00000000    0.00000000    0.00000000
     atom   10 type  1   force =     0.00000000    0.00000000    0.00000000
     atom   11 type  1   force =     0.00000000    0.00000000    0.00000000
     atom   12 type  1   force =     0.00000000    0.00000000    0.00000000
     atom   13 type  1   force =     0.00000000    0.00000000    0.00000000
     atom   14 type  1   force =     0.00000000    0.00000000    0.00000000
     atom   15 type  1   force =     0.00000000    0.00000000    0.00000000
     atom   16 type  1   force =     0.00000000    0.00000000    0.00000000
     atom   17 type  1   force =     0.00000000    0.00000000    0.00000000
     atom   18 type  1   force =     0.00000000    0.00000000    0.00000000
     atom   19 type  1   force =     0.00000000    0.00000000    0.00000000
     atom   20 type  1   force =     0.00000000    0.00000000    0.00000000
     atom   21 type  1   force =     0.00000000    0.00000000    0.00000000
     atom   22 type  1   force =     0.00000000    0.00000000    0.00000000
     atom   23 type  1   force =     0.00000000    0.00000000    0.00000000
     atom   24 type  1   force =     0.00000000    0.00000000    0.00000000
     atom   25 type  1   force =     0.00000000    0.00000000    0.00000000
     atom   26 type  1   force =     0.00000000    0.00000000    0.00000000
     atom   27 type  1   force =     0.00000000    0.00000000    0.00000000
     atom   28 type  1   force =     0.00000000    0.00000000    0.00000000
     The Hubbard contrib.    to forces
     atom    1 type  1   force =     0.00000000    0.00000000    0.00000000
     atom    2 type  1   force =     0.00000000    0.00000000    0.00000000
     atom    3 type  1   force =     0.00000000    0.00000000    0.00000000
     atom    4 type  1   force =     0.00000000    0.00000000    0.00000000
     atom    5 type  1   force =     0.00000000    0.00000000    0.00000000
     atom    6 type  1   force =     0.00000000    0.00000000    0.00000000
     atom    7 type  1   force =     0.00000000    0.00000000    0.00000000
     atom    8 type  1   force =     0.00000000    0.00000000    0.00000000
     atom    9 type  1   force =     0.00000000    0.00000000    0.00000000
     atom   10 type  1   force =     0.00000000    0.00000000    0.00000000
     atom   11 type  1   force =     0.00000000    0.00000000    0.00000000
     atom   12 type  1   force =     0.00000000    0.00000000    0.00000000
     atom   13 type  1   force =     0.00000000    0.00000000    0.00000000
     atom   14 type  1   force =     0.00000000    0.00000000    0.00000000
     atom   15 type  1   force =     0.00000000    0.00000000    0.00000000
     atom   16 type  1   force =     0.00000000    0.00000000    0.00000000
     atom   17 type  1   force =     0.00000000    0.00000000    0.00000000
     atom   18 type  1   force =     0.00000000    0.00000000    0.00000000
     atom   19 type  1   force =     0.00000000    0.00000000    0.00000000
     atom   20 type  1   force =     0.00000000    0.00000000    0.00000000
     atom   21 type  1   force =     0.00000000    0.00000000    0.00000000
     atom   22 type  1   force =     0.00000000    0.00000000    0.00000000
     atom   23 type  1   force =     0.00000000    0.00000000    0.00000000
     atom   24 type  1   force =     0.00000000    0.00000000    0.00000000
     atom   25 type  1   force =     0.00000000    0.00000000    0.00000000
     atom   26 type  1   force =     0.00000000    0.00000000    0.00000000
     atom   27 type  1   force =     0.00000000    0.00000000    0.00000000
     atom   28 type  1   force =     0.00000000    0.00000000    0.00000000
     The SCF correction term to forces
     atom    1 type  1   force =    -0.00000000    0.00000000   -0.00000000
     atom    2 type  1   force =    -0.00000000   -0.00000000   -0.00000000
     atom    3 type  1   force =     0.00000000    0.00000000   -0.00000000
     atom    4 type  1   force =     0.00000000    0.00000000   -0.00000000
     atom    5 type  1   force =    -0.00000000   -0.00000000   -0.00000000
     atom    6 type  1   force =    -0.00000000   -0.00000000   -0.00000000
     atom    7 type  1   force =    -0.00000000    0.00000000   -0.00000000
     atom    8 type  1   force =     0.00000000   -0.00000000    0.00000000
     atom    9 type  1   force =    -0.00000000    0.00000000   -0.00000000
     atom   10 type  1   force =     0.00000000   -0.00000000    0.00000000
     atom   11 type  1   force =    -0.00000000   -0.00000000    0.00000000
     atom   12 type  1   force =     0.00000000    0.00000000    0.00000000
     atom   13 type  1   force =    -0.00000000   -0.00000000    0.00000001
     atom   14 type  1   force =    -0.00000000   -0.00000000    0.00000000
     atom   15 type  1   force =     0.00000000    0.00000000   -0.00000000
     atom   16 type  1   force =     0.00000000   -0.00000000    0.00000001
     atom   17 type  1   force =     0.00000000    0.00000000   -0.00000000
     atom   18 type  1   force =    -0.00000000    0.00000000   -0.00000001
     atom   19 type  1   force =    -0.00000000   -0.00000000   -0.00000000
     atom   20 type  1   force =     0.00000000    0.00000000   -0.00000000
     atom   21 type  1   force =     0.00000000    0.00000000   -0.00000000
     atom   22 type  1   force =     0.00000000   -0.00000000   -0.00000000
     atom   23 type  1   force =    -0.00000000    0.00000000   -0.00000000
     atom   24 type  1   force =     0.00000000   -0.00000000    0.00000000
     atom   25 type  1   force =    -0.00000000   -0.00000000    0.00000000
     atom   26 type  1   force =    -0.00000000    0.00000000    0.00000000
     atom   27 type  1   force =     0.00000000   -0.00000000    0.00000001
     atom   28 type  1   force =     0.00000000   -0.00000000    0.00000000

     Total force =     0.007484     Total SCF correction =     0.000000

     Writing all to output data dir ./Li/Lithium.save/ :
     XML data file

     General routines

     Parallel routines

     PAW routines

     Environ routines

   This run was terminated on:  11:22: 4  21Jan2025

   JOB DONE.