     Program PWSCF v.7.4 starts on 26Dec2024 at 12: 5:28

     Reading input from espresso.pwi
Warning: card &CELL ignored
Warning: card    PRESS_CONV_THR   = 0.1 ignored
Warning: card    CELL_DOFREE      = 'ALL' ignored
Warning: card / ignored
Warning: card &FCP ignored
Warning: card / ignored
Warning: card &RISM ignored
Warning: card / ignored

     Current dimensions of program PWSCF are:
     Max number of different atomic species (ntypx) = 10
     Max number of k-points (npk) =  40000
     Max angular momentum in pseudopotentials (lmaxx) =  4

     IMPORTANT: XC functional enforced from input :
     Exchange-correlation= PBE
                           (   1   4   3   4   0   0   0)
     Any further DFT definition will be discarded
     Please, verify this is what you really want

     Reading input from environ.in:
     * using ionic solvent mode
     * setting boundary derivatives method to SSCS default
     * setting electrolyte-boundary derivatives method to SSCS default

Environ Warning (1001): card EOF ignored

     Found identity + (  0.5000  0.0000 -0.0000) symmetry
     This is a supercell, fractional translations are disabled

     R & G space division:  proc/nbgrp/npool/nimage =     192
     Subspace diagonalization in iterative solution of the eigenvalue problem:
     a serial algorithm will be used

     Using Slab Decomposition

     bravais-lattice index     =           12
     lattice parameter (alat)  =      12.9830  a.u.
     unit-cell volume          =   12574.0519 (a.u.)^3
     number of atoms/cell      =           20
     number of atomic types    =            1
     number of electrons       =        60.00
     number of Kohn-Sham states=           45
     kinetic-energy cutoff     =      80.0000  Ry
     charge density cutoff     =     800.0000  Ry
     scf convergence threshold =      1.0E-14
     mixing beta               =       0.2000
     number of iterations used =            8  local-TF  mixing
     Exchange-correlation= PBE
                           (   1   4   3   4   0   0   0)

                                  Environ Setup Summary

          O. Andreussi, I. Dabo and N. Marzari, J. Chem. Phys. 136, 064102 (2012)
          F. Nattino, M. Truscott, N. Marzari, and O. Andreussi, J. Chem. Phys. 150, 041722 (2019)

     in publications or presentations arising from this work.

     Parameters

     compensation onset threshold      =               0.1000E+00
     static permittivity               =                    89.90
     surface tension in input (dyn/cm) =                    37.30
     surface tension in internal units =               0.4792E-04

     Solvent Boundary

     solvent mode                      =                    ionic
     derivatives method                =                   lowmem
     electrolyte derivatives method    =                   lowmem
     numerical core for derivatives    =                      fft
     switching function adopted        =                     SCCS
     density limit for vacuum region   =               0.5000E-02
     density limit for bulk solvent    =               0.1000E-03
     soft-sphere radius mode           =                    bondi
     soft-sphere softness              =                     0.50
     alpha                             =                     1.32

     Electrostatic Setup

     electrostatic problem to solve    =                    modpb
     numerical solver adopted          =                   newton
     type of auxiliary density adopted =                     none
     numerical core for poisson        =                      fft
     adopting a nested solver scheme
     inner solver                      =                       cg
     inner core                        =                      fft
     type of pbc corrections           =                parabolic
     numerical core for corrections    =                      1da

     celldm(1)=  12.983009  celldm(2)=   0.829156  celldm(3)=   7.267908
     celldm(4)=  -0.301511  celldm(5)=   0.000000  celldm(6)=   0.000000

     crystal axes: (cart. coord. in units of alat)
               a(1) = (   1.000000   0.000000   0.000000 )
               a(2) = (  -0.250000   0.790569   0.000000 )
               a(3) = (   0.000000   0.000000   7.267908 )

     reciprocal axes: (cart. coord. in units 2 pi/alat)
               b(1) = (  1.000000  0.316228  0.000000 )
               b(2) = (  0.000000  1.264912  0.000000 )
               b(3) = (  0.000000  0.000000  0.137591 )

     PseudoPot. # 1 for Li read from file:
     /home/ba3g18/Repos/Pseudopotentials/pslibrary.1.0.0/pbe/PSEUDOPOTENTIALS/Li.pbe-sl-kjpaw_psl.1.0.0.UPF
     MD5 check sum: 3f4d2cafebb47c6c3aa8ed472e6f074d
     Pseudo is Projector augmented-wave, Zval =  3.0
     Generated using 'atomic' code by A. Dal Corso  v.7.4
     Shape of augmentation charge: PSQ
     Using radial grid of 1017 points,  4 beta functions with:
                l(1) =   0
                l(2) =   0
                l(3) =   1
                l(4) =   1
     Q(r) pseudized with 0 coefficients

     atomic species   valence    mass     pseudopotential
     Li                3.00     6.94000     Li( 1.00)

     No symmetry found

                                    s                        frac. trans.

      isym =  1     identity

 cryst.   s( 1) = (     1          0          0      )
                  (     0          1          0      )
                  (     0          0          1      )

 cart.    s( 1) = (  1.0000000 -0.0000000  0.0000000 )
                  (  0.0000000  1.0000000  0.0000000 )
                  (  0.0000000  0.0000000  1.0000000 )

     point group C_1 (1)
     there are  1 classes
     the character table:

       E
A      1.00

     the symmetry operations in each class and the name of the first element:

     E        1
          identity

   Cartesian axes

     site n.     atom                  positions (alat units)
         1        Li     tau(   1) = (   0.2503994   0.3265251   3.0691953  )
         2        Li     tau(   2) = (   0.0003906   0.6336293   3.2542296  )
         3        Li     tau(   3) = (   0.0001999   0.1668381   3.3784439  )
         4        Li     tau(   4) = (   0.2501127   0.4681284   3.5694301  )
         5        Li     tau(   5) = (   0.2498822   0.0062157   3.6984756  )
         6        Li     tau(   6) = (  -0.0001999   0.3075037   3.8894637  )
         7        Li     tau(   7) = (   0.2496070   0.6312840   4.0136757  )
         8        Li     tau(   8) = (   0.2496016   0.1478161   4.1987148  )
         9        Li     tau(   9) = (  -0.0004490   0.5024846   4.3402226  )
        10        Li     tau(  10) = (   0.5004499  -0.0281427   2.9276879  )
        11        Li     tau(  11) = (   0.7503985   0.3265257   3.0691926  )
        12        Li     tau(  12) = (   0.5003930   0.6336269   3.2542317  )
        13        Li     tau(  13) = (   0.5002026   0.1668380   3.3784481  )
        14        Li     tau(  14) = (   0.7501179   0.4681261   3.5694319  )
        15        Li     tau(  15) = (   0.7498872   0.0062134   3.6984773  )
        16        Li     tau(  16) = (   0.4997975   0.3075038   3.8894593  )
        17        Li     tau(  17) = (   0.7496094   0.6312815   4.0136779  )
        18        Li     tau(  18) = (   0.7496006   0.1478167   4.1987121  )
        19        Li     tau(  19) = (   0.4995501   0.5024846   4.3402196  )
        20        Li     tau(  20) = (   1.0004490  -0.0281428   2.9276850  )

   Crystallographic axes

     site n.     atom                  positions (cryst. coord.)
         1        Li     tau(   1) = (  0.3536558  0.4130255  0.4222942  )
         2        Li     tau(   2) = (  0.2007619  0.8014852  0.4477533  )
         3        Li     tau(   3) = (  0.0529587  0.2110355  0.4648441  )
         4        Li     tau(   4) = (  0.3981480  0.5921411  0.4911221  )
         5        Li     tau(   5) = (  0.2518477  0.0078623  0.5088776  )
         6        Li     tau(   6) = (  0.0970414  0.3889651  0.5351559  )
         7        Li     tau(   7) = (  0.4492367  0.7985185  0.5522464  )
         8        Li     tau(   8) = (  0.2963452  0.1869743  0.5777061  )
         9        Li     tau(   9) = (  0.1584507  0.6355986  0.5971764  )
        10        Li     tau(  10) = (  0.4915504 -0.0355980  0.4028240  )
        11        Li     tau(  11) = (  0.8536551  0.4130261  0.4222938  )
        12        Li     tau(  12) = (  0.7007635  0.8014821  0.4477536  )
        13        Li     tau(  13) = (  0.5529614  0.2110353  0.4648447  )
        14        Li     tau(  14) = (  0.8981525  0.5921382  0.4911224  )
        15        Li     tau(  15) = (  0.7518521  0.0078594  0.5088779  )
        16        Li     tau(  16) = (  0.5970388  0.3889652  0.5351553  )
        17        Li     tau(  17) = (  0.9492383  0.7985154  0.5522467  )
        18        Li     tau(  18) = (  0.7963443  0.1869751  0.5777058  )
        19        Li     tau(  19) = (  0.6584498  0.6355987  0.5971760  )
        20        Li     tau(  20) = (  0.9915494 -0.0355982  0.4028236  )

     number of k points=    62  Marzari-Vanderbilt smearing, width (Ry)=  0.0100
                       cart. coord. in units 2pi/alat
        k(    1) = (   0.0000000   0.0000000   0.0000000), wk =   0.0166667
        k(    2) = (   0.0000000   0.1054093   0.0000000), wk =   0.0333333
        k(    3) = (   0.0000000   0.2108186   0.0000000), wk =   0.0333333
        k(    4) = (   0.0000000   0.3162279   0.0000000), wk =   0.0333333
        k(    5) = (   0.0000000   0.4216372   0.0000000), wk =   0.0333333
        k(    6) = (   0.0000000   0.5270466   0.0000000), wk =   0.0333333
        k(    7) = (   0.0000000  -0.6324559   0.0000000), wk =   0.0166667
        k(    8) = (   0.1000000   0.0316228   0.0000000), wk =   0.0333333
        k(    9) = (   0.1000000   0.1370321   0.0000000), wk =   0.0333333
        k(   10) = (   0.1000000   0.2424414   0.0000000), wk =   0.0333333
        k(   11) = (   0.1000000   0.3478507   0.0000000), wk =   0.0333333
        k(   12) = (   0.1000000   0.4532600   0.0000000), wk =   0.0333333
        k(   13) = (   0.1000000   0.5586693   0.0000000), wk =   0.0333333
        k(   14) = (   0.1000000  -0.6008331   0.0000000), wk =   0.0333333
        k(   15) = (   0.1000000  -0.4954238   0.0000000), wk =   0.0333333
        k(   16) = (   0.1000000  -0.3900144   0.0000000), wk =   0.0333333
        k(   17) = (   0.1000000  -0.2846051   0.0000000), wk =   0.0333333
        k(   18) = (   0.1000000  -0.1791958   0.0000000), wk =   0.0333333
        k(   19) = (   0.1000000  -0.0737865   0.0000000), wk =   0.0333333
        k(   20) = (   0.2000000   0.0632456   0.0000000), wk =   0.0333333
        k(   21) = (   0.2000000   0.1686549   0.0000000), wk =   0.0333333
        k(   22) = (   0.2000000   0.2740642   0.0000000), wk =   0.0333333
        k(   23) = (   0.2000000   0.3794735   0.0000000), wk =   0.0333333
        k(   24) = (   0.2000000   0.4848828   0.0000000), wk =   0.0333333
        k(   25) = (   0.2000000   0.5902921   0.0000000), wk =   0.0333333
[...]

     total energy              =    -300.71353764 Ry
     estimated scf accuracy    <          1.6E-14 Ry
     electrostatic embedding   =      -0.01877722 Ry
     cavitation energy         =       0.01534486 Ry
     electrolyte free energy   =      -0.00079731 Ry
     correction to one-el term =       2.81896854 Ry

     iteration # 93     ecut=    80.00 Ry     beta= 0.20
     Davidson diagonalization with overlap

     ethr =  1.00E-13,  avg # of iterations =  1.0

     negative rho (up, down):  2.457E-04 0.000E+00

     End of self-consistent calculation

          k = 0.0000 0.0000 0.0000 (152015 PWs)   bands (ev):

   -50.0633 -50.0633 -50.0619 -50.0619 -49.5349 -49.5349 -49.5334 -49.5334
   -49.2373 -49.2354 -49.2339 -49.2336 -49.1945 -49.1898 -49.1886 -49.1864
   -49.1642 -49.1641 -49.1635 -49.1635  -6.0984  -5.5996  -4.7570  -3.6993
    -3.4724  -3.4681  -3.0257  -3.0067  -2.6174  -2.5170  -2.4388  -2.4215
    -2.2728  -2.1504  -2.0063  -1.7817  -1.6886  -1.5641  -1.3118  -1.1633
    -1.0360  -0.2928  -0.1653  -0.1153   0.0825

     occupation numbers
     1.0000   1.0000   1.0000   1.0000   1.0000   1.0000   1.0000   1.0000
     1.0000   1.0000   1.0000   1.0000   1.0000   1.0000   1.0000   1.0000
     1.0000   1.0000   1.0000   1.0000   1.0000   1.0000   1.0000   1.0000
     1.0000   1.0000   1.0088   1.0139   0.1553   0.0147   0.0011   0.0006
     0.0000   0.0000   0.0000   0.0000   0.0000   0.0000   0.0000   0.0000
     0.0000   0.0000   0.0000   0.0000   0.0000

[...]

          k = 0.4000 0.0211 0.0000 (151880 PWs)   bands (ev):

[...]

          k =-0.5000-0.1581 0.0000 (151980 PWs)   bands (ev):

[...]

          k =-0.5000-0.7906 0.0000 (151788 PWs)   bands (ev):

   -50.0626 -50.0626 -50.0626 -50.0626 -49.5342 -49.5342 -49.5341 -49.5341
   -49.2353 -49.2353 -49.2344 -49.2344 -49.1927 -49.1927 -49.1873 -49.1872
   -49.1640 -49.1640 -49.1638 -49.1637  -4.9696  -4.9696  -4.4685  -4.4685
    -4.0197  -4.0197  -3.6454  -3.6454  -3.4780  -3.4780  -2.6838  -2.6838
    -2.5155  -2.5155  -1.6744  -1.6744  -1.3279  -1.3279  -0.6935  -0.6935
    -0.5891  -0.5891   0.1222   0.1223   0.2840

     occupation numbers
     1.0000   1.0000   1.0000   1.0000   1.0000   1.0000   1.0000   1.0000
     1.0000   1.0000   1.0000   1.0000   1.0000   1.0000   1.0000   1.0000
     1.0000   1.0000   1.0000   1.0000   1.0000   1.0000   1.0000   1.0000
     1.0000   1.0000   1.0000   1.0000   1.0000   1.0000   0.4270   0.4269
     0.0140   0.0140   0.0000   0.0000   0.0000   0.0000   0.0000   0.0000
     0.0000   0.0000   0.0000   0.0000   0.0000

     the Fermi energy is    -2.6787 ev

!    total energy              =    -300.71353764 Ry
     total all-electron energy =      -300.713700 Ry
     estimated scf accuracy    <          8.6E-15 Ry
     smearing contrib. (-TS)   =      -0.00063949 Ry
     internal energy E=F+TS    =    -300.71289816 Ry

     The total energy is F=E-TS. E is the sum of the following terms:
     one-electron contribution =   -3481.77231855 Ry
     hartree contribution      =    1708.34471861 Ry
     xc contribution           =     -71.61752093 Ry
     ewald contribution        =    1539.75337954 Ry
     one-center paw contrib.   =       1.76410605 Ry
      -> PAW hartree energy AE =       7.41797232 Ry
      -> PAW hartree energy PS =      -7.19533020 Ry
      -> PAW xc energy AE      =      -3.48341183 Ry
      -> PAW xc energy PS      =       3.34897442 Ry
      -> total E_H with PAW    =    1708.56736074 Ry
      -> total E_XC with PAW   =     -71.75195833 Ry
     electrostatic embedding   =      -0.01877722 Ry
     cavitation energy         =       0.01534486 Ry
     electrolyte free energy   =      -0.00079731 Ry
     correction to one-el term =       2.81896679 Ry

     WARNING: you are using the parabolic pbc correction;
              the potential shift above must be added to
              band and Fermi energies.

     convergence has been achieved in  93 iterations
     The dielectric solvent contribution to forces
     atom    1 type  1   force =    -0.00000032   -0.00811175    0.00692445
     atom    2 type  1   force =    -0.00000035    0.00283806    0.00379896
     atom    3 type  1   force =     0.00000009   -0.00064880    0.00137926
     atom    4 type  1   force =     0.00000016   -0.00014634    0.00076099
     atom    5 type  1   force =     0.00000002    0.00014639   -0.00076098
     atom    6 type  1   force =    -0.00000009    0.00064880   -0.00137924
     atom    7 type  1   force =     0.00000032   -0.00283796   -0.00379890
     atom    8 type  1   force =     0.00000036    0.00811176   -0.00692378
     atom    9 type  1   force =     0.00000095   -0.00842937    0.01564039
     atom   10 type  1   force =    -0.00000036    0.00842957   -0.01563969
     atom   11 type  1   force =    -0.00000036   -0.00811176    0.00692381
     atom   12 type  1   force =    -0.00000032    0.00283796    0.00379893
     atom   13 type  1   force =     0.00000007   -0.00064876    0.00137936
     atom   14 type  1   force =    -0.00000002   -0.00014639    0.00076101
     atom   15 type  1   force =    -0.00000016    0.00014634   -0.00076097
     atom   16 type  1   force =    -0.00000007    0.00064876   -0.00137934
     atom   17 type  1   force =     0.00000035   -0.00283806   -0.00379894
     atom   18 type  1   force =     0.00000032    0.00811175   -0.00692443
     atom   19 type  1   force =     0.00000036   -0.00842958    0.01563972
     atom   20 type  1   force =    -0.00000095    0.00842939   -0.01564033

     Forces acting on atoms (cartesian axes, Ry/au):

     atom    1 type  1   force =     0.00000038   -0.00000352   -0.00000272
     atom    2 type  1   force =    -0.00000095    0.00000110    0.00000312
     atom    3 type  1   force =     0.00000074    0.00000114    0.00000398
     atom    4 type  1   force =    -0.00000014   -0.00000275   -0.00000011
     atom    5 type  1   force =     0.00000072    0.00000268    0.00000017
     atom    6 type  1   force =    -0.00000071   -0.00000115   -0.00000403
     atom    7 type  1   force =     0.00000109   -0.00000139   -0.00000290
     atom    8 type  1   force =    -0.00000049    0.00000351    0.00000241
     atom    9 type  1   force =    -0.00000033   -0.00000348    0.00000006
     atom   10 type  1   force =     0.00000033    0.00000323   -0.00000016
     atom   11 type  1   force =     0.00000049   -0.00000349   -0.00000240
     atom   12 type  1   force =    -0.00000109    0.00000135    0.00000290
     atom   13 type  1   force =     0.00000024    0.00000107    0.00000353
     atom   14 type  1   force =    -0.00000073   -0.00000267   -0.00000016
     atom   15 type  1   force =     0.00000016    0.00000276    0.00000014
     atom   16 type  1   force =    -0.00000026   -0.00000105   -0.00000352
     atom   17 type  1   force =     0.00000094   -0.00000109   -0.00000312
     atom   18 type  1   force =    -0.00000039    0.00000351    0.00000274
     atom   19 type  1   force =    -0.00000033   -0.00000324    0.00000015
     atom   20 type  1   force =     0.00000035    0.00000349   -0.00000008
     The non-local contrib.  to forces
     atom    1 type  1   force =     0.00002977    0.00372446   -0.03133179
     atom    2 type  1   force =     0.00005035    0.00058997    0.00012339
     atom    3 type  1   force =     0.00004701    0.00177285   -0.00425955
     atom    4 type  1   force =     0.00003619   -0.00200576    0.00246754
     atom    5 type  1   force =    -0.00003520    0.00200648   -0.00246788
     atom    6 type  1   force =    -0.00004698   -0.00177284    0.00425955
     atom    7 type  1   force =    -0.00004976   -0.00058987   -0.00012379
     atom    8 type  1   force =    -0.00003015   -0.00372410    0.03133259
     atom    9 type  1   force =    -0.00004254   -0.00051878    0.08205202
     atom   10 type  1   force =     0.00004281    0.00051849   -0.08205035
     atom   11 type  1   force =     0.00003015    0.00372412   -0.03133258
     atom   12 type  1   force =     0.00004976    0.00058981    0.00012379
     atom   13 type  1   force =     0.00004641    0.00177277   -0.00425913
     atom   14 type  1   force =     0.00003517   -0.00200647    0.00246789
     atom   15 type  1   force =    -0.00003618    0.00200575   -0.00246752
     atom   16 type  1   force =    -0.00004644   -0.00177273    0.00425911
     atom   17 type  1   force =    -0.00005035   -0.00058995   -0.00012340
     atom   18 type  1   force =    -0.00002977   -0.00372446    0.03133176
     atom   19 type  1   force =    -0.00004283   -0.00051850    0.08205033
     atom   20 type  1   force =     0.00004255    0.00051878   -0.08205197
     The ionic contribution  to forces
     atom    1 type  1   force =    -0.00014363    0.05077421   -9.49320786
     atom    2 type  1   force =    -0.00023664   -0.05635965   -6.36646045
     atom    3 type  1   force =     0.00001985    0.03023667   -4.25193854
     atom    4 type  1   force =    -0.00005760   -0.02164527   -1.09275771
     atom    5 type  1   force =     0.00007883    0.02164988    1.09272643
     atom    6 type  1   force =    -0.00001927   -0.03023681    4.25194065
     atom    7 type  1   force =     0.00025251    0.05635999    6.36642118
     atom    8 type  1   force =     0.00014718   -0.05076971    9.49324409
     atom    9 type  1   force =     0.00003763    0.01949770   11.19541129
     atom   10 type  1   force =    -0.00003935   -0.01950236  -11.19538117
     atom   11 type  1   force =    -0.00014723    0.05077009   -9.49324394
     atom   12 type  1   force =    -0.00025252   -0.05636078   -6.36642090
     atom   13 type  1   force =     0.00001268    0.03023367   -4.25186990
     atom   14 type  1   force =    -0.00007913   -0.02164969   -1.09272628
     atom   15 type  1   force =     0.00005800    0.02164504    1.09275719
     atom   16 type  1   force =    -0.00001327   -0.03023310    4.25186867
     atom   17 type  1   force =     0.00023653    0.05635983    6.36646024
     atom   18 type  1   force =     0.00014361   -0.05077431    9.49320677
     atom   19 type  1   force =     0.00003917    0.01950228   11.19538095
     atom   20 type  1   force =    -0.00003733   -0.01949768  -11.19541070
     The local contribution  to forces
     atom    1 type  1   force =     0.00011455   -0.04639043    9.51761248
     atom    2 type  1   force =     0.00018568    0.05293271    6.36254121
     atom    3 type  1   force =    -0.00006622   -0.03135958    4.25482281
     atom    4 type  1   force =     0.00002110    0.02379462    1.08952907
     atom    5 type  1   force =    -0.00004293   -0.02380007   -1.08949738
     atom    6 type  1   force =     0.00006563    0.03135970   -4.25482499
     atom    7 type  1   force =    -0.00020199   -0.05293355   -6.36250138
     atom    8 type  1   force =    -0.00011789    0.04638556   -9.51765048
     atom    9 type  1   force =     0.00000363   -0.01055302  -11.29310361
     atom   10 type  1   force =    -0.00000277    0.01055753   11.29307104
     atom   11 type  1   force =     0.00011793   -0.04638594    9.51765030
     atom   12 type  1   force =     0.00020199    0.05293436    6.36250107
     atom   13 type  1   force =    -0.00005892   -0.03135661    4.25475320
     atom   14 type  1   force =     0.00004325    0.02379988    1.08949721
     atom   15 type  1   force =    -0.00002150   -0.02379437   -1.08952856
     atom   16 type  1   force =     0.00005953    0.03135602   -4.25475196
     atom   17 type  1   force =    -0.00018558   -0.05293290   -6.36254101
     atom   18 type  1   force =    -0.00011454    0.04639053   -9.51761134
     atom   19 type  1   force =     0.00000297   -0.01055744  -11.29307082
     atom   20 type  1   force =    -0.00000392    0.01055300   11.29310289
     The core correction contribution to forces
     atom    1 type  1   force =     0.00000000    0.00000000    0.00000000
     atom    2 type  1   force =     0.00000000    0.00000000    0.00000000
     atom    3 type  1   force =     0.00000000    0.00000000    0.00000000
     atom    4 type  1   force =     0.00000000    0.00000000    0.00000000
     atom    5 type  1   force =     0.00000000    0.00000000    0.00000000
     atom    6 type  1   force =     0.00000000    0.00000000    0.00000000
     atom    7 type  1   force =     0.00000000    0.00000000    0.00000000
     atom    8 type  1   force =     0.00000000    0.00000000    0.00000000
     atom    9 type  1   force =     0.00000000    0.00000000    0.00000000
     atom   10 type  1   force =     0.00000000    0.00000000    0.00000000
     atom   11 type  1   force =     0.00000000    0.00000000    0.00000000
     atom   12 type  1   force =     0.00000000    0.00000000    0.00000000
     atom   13 type  1   force =     0.00000000    0.00000000    0.00000000
     atom   14 type  1   force =     0.00000000    0.00000000    0.00000000
     atom   15 type  1   force =     0.00000000    0.00000000    0.00000000
     atom   16 type  1   force =     0.00000000    0.00000000    0.00000000
     atom   17 type  1   force =     0.00000000    0.00000000    0.00000000
     atom   18 type  1   force =     0.00000000    0.00000000    0.00000000
     atom   19 type  1   force =     0.00000000    0.00000000    0.00000000
     atom   20 type  1   force =     0.00000000    0.00000000    0.00000000
     The Hubbard contrib.    to forces
     atom    1 type  1   force =     0.00000000    0.00000000    0.00000000
     atom    2 type  1   force =     0.00000000    0.00000000    0.00000000
     atom    3 type  1   force =     0.00000000    0.00000000    0.00000000
     atom    4 type  1   force =     0.00000000    0.00000000    0.00000000
     atom    5 type  1   force =     0.00000000    0.00000000    0.00000000
     atom    6 type  1   force =     0.00000000    0.00000000    0.00000000
     atom    7 type  1   force =     0.00000000    0.00000000    0.00000000
     atom    8 type  1   force =     0.00000000    0.00000000    0.00000000
     atom    9 type  1   force =     0.00000000    0.00000000    0.00000000
     atom   10 type  1   force =     0.00000000    0.00000000    0.00000000
     atom   11 type  1   force =     0.00000000    0.00000000    0.00000000
     atom   12 type  1   force =     0.00000000    0.00000000    0.00000000
     atom   13 type  1   force =     0.00000000    0.00000000    0.00000000
     atom   14 type  1   force =     0.00000000    0.00000000    0.00000000
     atom   15 type  1   force =     0.00000000    0.00000000    0.00000000
     atom   16 type  1   force =     0.00000000    0.00000000    0.00000000
     atom   17 type  1   force =     0.00000000    0.00000000    0.00000000
     atom   18 type  1   force =     0.00000000    0.00000000    0.00000000
     atom   19 type  1   force =     0.00000000    0.00000000    0.00000000
     atom   20 type  1   force =     0.00000000    0.00000000    0.00000000
     The SCF correction term to forces
     atom    1 type  1   force =    -0.00000000   -0.00000000    0.00000001
     atom    2 type  1   force =    -0.00000000    0.00000001    0.00000001
     atom    3 type  1   force =    -0.00000000   -0.00000000   -0.00000000
     atom    4 type  1   force =     0.00000000    0.00000000    0.00000000
     atom    5 type  1   force =     0.00000000   -0.00000000   -0.00000001
     atom    6 type  1   force =     0.00000000    0.00000000   -0.00000000
     atom    7 type  1   force =     0.00000000   -0.00000001   -0.00000001
     atom    8 type  1   force =     0.00000000    0.00000000   -0.00000002
     atom    9 type  1   force =     0.00000000    0.00000000   -0.00000002
     atom   10 type  1   force =    -0.00000000   -0.00000000    0.00000001
     atom   11 type  1   force =     0.00000000   -0.00000000    0.00000001
     atom   12 type  1   force =    -0.00000000    0.00000001    0.00000001
     atom   13 type  1   force =    -0.00000000   -0.00000000   -0.00000000
     atom   14 type  1   force =    -0.00000000   -0.00000000    0.00000000
     atom   15 type  1   force =    -0.00000000   -0.00000000   -0.00000001
     atom   16 type  1   force =    -0.00000000    0.00000000   -0.00000000
     atom   17 type  1   force =    -0.00000000   -0.00000001   -0.00000001
     atom   18 type  1   force =    -0.00000000    0.00000000   -0.00000001
     atom   19 type  1   force =    -0.00000000    0.00000000   -0.00000002
     atom   20 type  1   force =     0.00000000    0.00000000    0.00000002

     Total force =     0.000016     Total SCF correction =     0.000000
     Message from routine punch:
     Nothing written, as per user request (disk_io='none')

     General routines

     Parallel routines

     PAW routines

     Environ routines

   This run was terminated on:  12:19:36  26Dec2024

   JOB DONE.