     Program PWSCF v.7.4 starts on  5Jan2025 at  3:20: 5

     Reading input from espresso.pwi
Warning: card &CELL ignored
Warning: card    PRESS_CONV_THR   = 0.1 ignored
Warning: card    CELL_DOFREE      = 'ALL' ignored
Warning: card / ignored
Warning: card &FCP ignored
Warning: card / ignored
Warning: card &RISM ignored
Warning: card / ignored

     Current dimensions of program PWSCF are:
     Max number of different atomic species (ntypx) = 10
     Max number of k-points (npk) =  40000
     Max angular momentum in pseudopotentials (lmaxx) =  4

     IMPORTANT: XC functional enforced from input :
     Exchange-correlation= PBE
                           (   1   4   3   4   0   0   0)
     Any further DFT definition will be discarded
     Please, verify this is what you really want

     Reading input from environ.in:
     * using ionic solvent mode
     * setting boundary derivatives method to SSCS default
     * setting electrolyte-boundary derivatives method to SSCS default

Environ Warning (1001): card EOF ignored

     Found identity + (  0.5000 -0.0000  0.0000) symmetry
     This is a supercell, fractional translations are disabled

     K-points division:     npool     =       2
     R & G space division:  proc/nbgrp/npool/nimage =     192
     Subspace diagonalization in iterative solution of the eigenvalue problem:
     a serial algorithm will be used

     Using Slab Decomposition

     bravais-lattice index     =           12
     lattice parameter (alat)  =      18.3607  a.u.
     unit-cell volume          =   23801.8584 (a.u.)^3
     number of atoms/cell      =           36
     number of atomic types    =            1
     number of electrons       =       108.00
     number of Kohn-Sham states=           81
     kinetic-energy cutoff     =      80.0000  Ry
     charge density cutoff     =     800.0000  Ry
     scf convergence threshold =      1.0E-06
     mixing beta               =       0.2000
     number of iterations used =            8  local-TF  mixing
     energy convergence thresh.=      1.0E-05
     force convergence thresh. =      3.9E-04
     Exchange-correlation= PBE
                           (   1   4   3   4   0   0   0)
     nstep                     =          999

                                  Environ Setup Summary

          O. Andreussi, I. Dabo and N. Marzari, J. Chem. Phys. 136, 064102 (2012)
          F. Nattino, M. Truscott, N. Marzari, and O. Andreussi, J. Chem. Phys. 150, 041722 (2019)

     in publications or presentations arising from this work.

     Parameters

     compensation onset threshold      =               0.1000E+00
     static permittivity               =                    89.90
     surface tension in input (dyn/cm) =                    37.30
     surface tension in internal units =               0.4792E-04

     Solvent Boundary

     solvent mode                      =                    ionic
     derivatives method                =                   lowmem
     electrolyte derivatives method    =                   lowmem
     numerical core for derivatives    =                      fft
     switching function adopted        =                     SCCS
     density limit for vacuum region   =               0.5000E-02
     density limit for bulk solvent    =               0.1000E-03
     soft-sphere radius mode           =                    bondi
     soft-sphere softness              =                     0.50
     alpha                             =                     1.32

     Electrostatic Setup

     electrostatic problem to solve    =                    modpb
     numerical solver adopted          =                   newton
     type of auxiliary density adopted =                     none
     numerical core for poisson        =                      fft
     adopting a nested solver scheme
     inner solver                      =                       cg
     inner core                        =                      fft
     type of pbc corrections           =                parabolic
     numerical core for corrections    =                      1da

     >>>>> Grand-Canonical SCF is activated <<<<<
     Initial Total Charge  =     0.000000 e
     Target Fermi Energy   =    -1.404000 eV
     Thr. of Fermi Energy  =     0.001000 eV
     Wave-shift of Kerker  =     0.400000 bohr^-1
     Wave-shift of Hartree =     1.500000 bohr^-1
     Mixing Rate of Fermi  =     0.050000

     celldm(1)=  18.360747  celldm(2)=   0.790569  celldm(3)=   5.127180
     celldm(4)=   0.316228  celldm(5)=   0.000000  celldm(6)=   0.000000

     crystal axes: (cart. coord. in units of alat)
               a(1) = (   1.000000   0.000000   0.000000 )
               a(2) = (   0.250000   0.750000   0.000000 )
               a(3) = (   0.000000   0.000000   5.127180 )

     reciprocal axes: (cart. coord. in units 2 pi/alat)
               b(1) = (  1.000000 -0.333333  0.000000 )
               b(2) = (  0.000000  1.333333  0.000000 )
               b(3) = (  0.000000  0.000000  0.195039 )

     PseudoPot. # 1 for Li read from file:
     /work/e89/e89/ba3g18/Repos/Pseudopotentials/Pslibrary/Li.pbe-sl-kjpaw_psl.1.0.0.UPF
     MD5 check sum: 3f4d2cafebb47c6c3aa8ed472e6f074d
     Pseudo is Projector augmented-wave, Zval =  3.0
     Generated using 'atomic' code by A. Dal Corso  v.7.4
     Shape of augmentation charge: PSQ
     Using radial grid of 1017 points,  4 beta functions with:
                l(1) =   0
                l(2) =   0
                l(3) =   1
                l(4) =   1
     Q(r) pseudized with 0 coefficients

     atomic species   valence    mass     pseudopotential
     Li                3.00     6.94000     Li( 1.00)

     No symmetry found

                                    s                        frac. trans.

      isym =  1     identity

 cryst.   s( 1) = (     1          0          0      )
                  (     0          1          0      )
                  (     0          0          1      )

 cart.    s( 1) = (  1.0000000  0.0000000  0.0000000 )
                  (  0.0000000  1.0000000  0.0000000 )
                  (  0.0000000  0.0000000  1.0000000 )

     point group C_1 (1)
     there are  1 classes
     the character table:

       E
A      1.00

     the symmetry operations in each class and the name of the first element:

     E        1
          identity

   Cartesian axes

     site n.     atom                  positions (alat units)
         1        Li     tau(   1) = (   0.0000117  -0.0074539   3.0508373  )
         2        Li     tau(   2) = (   0.2500086   0.4103500   2.1273234  )
         3        Li     tau(   3) = (   0.2500247   0.0948254   2.2455187  )
         4        Li     tau(   4) = (   0.5000204   0.4913808   2.3600159  )
         5        Li     tau(   5) = (   0.5000059   0.1697968   2.4653222  )
         6        Li     tau(   6) = (   0.2499960   0.5866275   2.5945649  )
         7        Li     tau(   7) = (   0.2499753   0.2466196   2.7061061  )
         8        Li     tau(   8) = (   0.4999827   0.6651762   2.8376432  )
         9        Li     tau(   9) = (   0.5000028   0.3365338   2.9667801  )
        10        Li     tau(  10) = (   0.2500172   0.6681563   2.2895353  )
        11        Li     tau(  11) = (   0.2500248   0.3367147   2.4210723  )
        12        Li     tau(  12) = (   0.5000034   0.7467050   2.5326170  )
        13        Li     tau(  13) = (   0.4999945   0.4135331   2.6618580  )
        14        Li     tau(  14) = (   0.4999795   0.0919526   2.7671668  )
        15        Li     tau(  15) = (   0.2499745   0.4885087   2.8816614  )
        16        Li     tau(  16) = (   0.2499925   0.1729840   2.9998499  )
        17        Li     tau(  17) = (   0.4999893   0.5907871   2.0763411  )
        18        Li     tau(  18) = (   0.4999976   0.2468040   2.1603979  )
        19        Li     tau(  19) = (   0.5000104  -0.0074554   3.0508384  )
        20        Li     tau(  20) = (   0.7500083   0.4103496   2.1273251  )
        21        Li     tau(  21) = (   0.7500253   0.0948254   2.2455199  )
        22        Li     tau(  22) = (   1.0000199   0.4913811   2.3600166  )
        23        Li     tau(  23) = (   1.0000063   0.1697971   2.4653218  )
        24        Li     tau(  24) = (   0.7499961   0.5866285   2.5945647  )
        25        Li     tau(  25) = (   0.7499754   0.2466192   2.7061078  )
        26        Li     tau(  26) = (   0.9999831   0.6651764   2.8376435  )
        27        Li     tau(  27) = (   1.0000018   0.3365315   2.9667800  )
        28        Li     tau(  28) = (   0.7500171   0.6681565   2.2895351  )
        29        Li     tau(  29) = (   0.7500245   0.3367152   2.4210745  )
        30        Li     tau(  30) = (   1.0000045   0.7467045   2.5326177  )
        31        Li     tau(  31) = (   0.9999934   0.4135333   2.6618582  )
        32        Li     tau(  32) = (   0.9999802   0.0919519   2.7671654  )
        33        Li     tau(  33) = (   0.7499756   0.4885085   2.8816604  )
        34        Li     tau(  34) = (   0.7499907   0.1729833   2.9998516  )
        35        Li     tau(  35) = (   0.9999887   0.5907877   2.0763421  )
        36        Li     tau(  36) = (   0.9999980   0.2468047   2.1603978  )

   Crystallographic axes

     site n.     atom                  positions (cryst. coord.)
         1        Li     tau(   1) = (  0.0024964 -0.0099386  0.5950322  )
         2        Li     tau(   2) = (  0.1132253  0.5471333  0.4149110  )
         3        Li     tau(   3) = (  0.2184162  0.1264338  0.4379637  )
         4        Li     tau(   4) = (  0.3362268  0.6551744  0.4602951  )
         5        Li     tau(   5) = (  0.4434070  0.2263957  0.4808340  )
         6        Li     tau(   6) = (  0.0544535  0.7821700  0.5060413  )
         7        Li     tau(   7) = (  0.1677688  0.3288261  0.5277962  )
         8        Li     tau(   8) = (  0.2782573  0.8869016  0.5534510  )
         9        Li     tau(   9) = (  0.3878248  0.4487117  0.5786378  )
        10        Li     tau(  10) = (  0.0272984  0.8908750  0.4465487  )
        11        Li     tau(  11) = (  0.1377865  0.4489529  0.4722035  )
        12        Li     tau(  12) = (  0.2511018  0.9956067  0.4939591  )
        13        Li     tau(  13) = (  0.3621501  0.5513775  0.5191661  )
        14        Li     tau(  14) = (  0.4693286  0.1226034  0.5397054  )
        15        Li     tau(  15) = (  0.0871382  0.6513449  0.5620363  )
        16        Li     tau(  16) = (  0.1923311  0.2306454  0.5850877  )
        17        Li     tau(  17) = (  0.3030602  0.7877161  0.4049675  )
        18        Li     tau(  18) = (  0.4177296  0.3290719  0.4213618  )
        19        Li     tau(  19) = (  0.5024955 -0.0099405  0.5950324  )
        20        Li     tau(  20) = (  0.6132251  0.5471328  0.4149113  )
        21        Li     tau(  21) = (  0.7184168  0.1264339  0.4379639  )
        22        Li     tau(  22) = (  0.8362262  0.6551748  0.4602953  )
        23        Li     tau(  23) = (  0.9434072  0.2263962  0.4808339  )
        24        Li     tau(  24) = (  0.5544532  0.7821714  0.5060413  )
[...]
     atom    6 type  1   force =     0.00021302    0.03004964    0.75310483
     atom    7 type  1   force =     0.00013183    0.00708490    3.42237346
     atom    8 type  1   force =     0.00007341   -0.15419128    6.56574054
     atom    9 type  1   force =     0.00006358    0.33566523    9.53496899
     atom   10 type  1   force =     0.00000615    0.15460161   -6.56461121
     atom   11 type  1   force =    -0.00006615   -0.00793882   -3.42296243
     atom   12 type  1   force =    -0.00010982   -0.02940049   -0.75102477
     atom   13 type  1   force =    -0.00008081    0.06000633    2.36476281
     atom   14 type  1   force =     0.00010257   -0.06303810    4.75002228
     atom   15 type  1   force =    -0.00005797    0.05499495    7.77121116
     atom   16 type  1   force =    -0.00000540    0.08403433   10.12987727
     atom   17 type  1   force =     0.00016087    0.31573154  -10.83010278
     atom   18 type  1   force =    -0.00008225   -0.33582198   -9.53550015
     atom   19 type  1   force =    -0.00015778   -0.31584128   10.82931436
     atom   20 type  1   force =    -0.00001083   -0.08430726  -10.13071435
     atom   21 type  1   force =     0.00004987   -0.05443083   -7.76985989
     atom   22 type  1   force =    -0.00013834    0.06310815   -4.75100533
     atom   23 type  1   force =     0.00008394   -0.06039249   -2.36575518
     atom   24 type  1   force =     0.00008611    0.03010222    0.75313300
     atom   25 type  1   force =     0.00008554    0.00708845    3.42243023
     atom   26 type  1   force =     0.00000860   -0.15415875    6.56580485
     atom   27 type  1   force =     0.00010059    0.33564707    9.53500933
     atom   28 type  1   force =    -0.00008526    0.15464610   -6.56457097
     atom   29 type  1   force =    -0.00014447   -0.00792773   -3.42291524
     atom   30 type  1   force =    -0.00018804   -0.02933362   -0.75099180
     atom   31 type  1   force =    -0.00006604    0.05994774    2.36478308
     atom   32 type  1   force =     0.00015292   -0.06301754    4.75002447
     atom   33 type  1   force =    -0.00015068    0.05505426    7.77124014
     atom   34 type  1   force =    -0.00005377    0.08403602   10.12993574
     atom   35 type  1   force =     0.00010734    0.31575898  -10.83012033
     atom   36 type  1   force =    -0.00007891   -0.33581380   -9.53556574
     The local contribution  to forces
     atom    1 type  1   force =     0.00000306    0.30954335  -10.77926483
     atom    2 type  1   force =    -0.00009713    0.06457438   10.02375260
     atom    3 type  1   force =    -0.00019250    0.06043656    7.63417992
     atom    4 type  1   force =     0.00010788   -0.05553317    4.66725048
     atom    5 type  1   force =    -0.00009006    0.05710621    2.32280004
     atom    6 type  1   force =    -0.00025939   -0.03358950   -0.73788981
     atom    7 type  1   force =    -0.00011737   -0.00280325   -3.36391310
     atom    8 type  1   force =    -0.00008853    0.14081001   -6.44673530
     atom    9 type  1   force =    -0.00005715   -0.31169780   -9.40909062
     atom   10 type  1   force =     0.00000852   -0.14122657    6.44536433
     atom   11 type  1   force =     0.00005353    0.00365755    3.36420840
     atom   12 type  1   force =     0.00015774    0.03291365    0.73553820
     atom   13 type  1   force =     0.00011211   -0.05669786   -2.32214950
     atom   14 type  1   force =    -0.00008803    0.05544241   -4.66656872
     atom   15 type  1   force =     0.00009745   -0.06093077   -7.63572165
     atom   16 type  1   force =     0.00003004   -0.06425536  -10.02310482
     atom   17 type  1   force =    -0.00004889   -0.30942799   10.77978217
     atom   18 type  1   force =     0.00007587    0.31186043    9.40940272
     atom   19 type  1   force =     0.00004611    0.30953063  -10.77926133
     atom   20 type  1   force =    -0.00001436    0.06454901   10.02371486
     atom   21 type  1   force =    -0.00008963    0.06039881    7.63413939
     atom   22 type  1   force =     0.00012278   -0.05551450    4.66727688
     atom   23 type  1   force =    -0.00011505    0.05708656    2.32282693
     atom   24 type  1   force =    -0.00013395   -0.03364161   -0.73791851
     atom   25 type  1   force =    -0.00007281   -0.00280557   -3.36396898
     atom   26 type  1   force =    -0.00002348    0.14077653   -6.44680094
     atom   27 type  1   force =    -0.00009319   -0.31168002   -9.40913157
     atom   28 type  1   force =     0.00010004   -0.14127130    6.44532321
     atom   29 type  1   force =     0.00012995    0.00364811    3.36416156
     atom   30 type  1   force =     0.00023429    0.03284745    0.73550534
     atom   31 type  1   force =     0.00009721   -0.05663858   -2.32216945
     atom   32 type  1   force =    -0.00013717    0.05542022   -4.66657086
     atom   33 type  1   force =     0.00018897   -0.06098954   -7.63575127
     atom   34 type  1   force =     0.00007841   -0.06425636  -10.02316557
     atom   35 type  1   force =     0.00000343   -0.30945429   10.77979831
     atom   36 type  1   force =     0.00007155    0.31185279    9.40946969
     The core correction contribution to forces
     atom    1 type  1   force =     0.00000000    0.00000000    0.00000000
     atom    2 type  1   force =     0.00000000    0.00000000    0.00000000
     atom    3 type  1   force =     0.00000000    0.00000000    0.00000000
     atom    4 type  1   force =     0.00000000    0.00000000    0.00000000
     atom    5 type  1   force =     0.00000000    0.00000000    0.00000000
     atom    6 type  1   force =     0.00000000    0.00000000    0.00000000
     atom    7 type  1   force =     0.00000000    0.00000000    0.00000000
     atom    8 type  1   force =     0.00000000    0.00000000    0.00000000
     atom    9 type  1   force =     0.00000000    0.00000000    0.00000000
     atom   10 type  1   force =     0.00000000    0.00000000    0.00000000
     atom   11 type  1   force =     0.00000000    0.00000000    0.00000000
     atom   12 type  1   force =     0.00000000    0.00000000    0.00000000
     atom   13 type  1   force =     0.00000000    0.00000000    0.00000000
     atom   14 type  1   force =     0.00000000    0.00000000    0.00000000
     atom   15 type  1   force =     0.00000000    0.00000000    0.00000000
     atom   16 type  1   force =     0.00000000    0.00000000    0.00000000
     atom   17 type  1   force =     0.00000000    0.00000000    0.00000000
     atom   18 type  1   force =     0.00000000    0.00000000    0.00000000
     atom   19 type  1   force =     0.00000000    0.00000000    0.00000000
     atom   20 type  1   force =     0.00000000    0.00000000    0.00000000
     atom   21 type  1   force =     0.00000000    0.00000000    0.00000000
     atom   22 type  1   force =     0.00000000    0.00000000    0.00000000
     atom   23 type  1   force =     0.00000000    0.00000000    0.00000000
     atom   24 type  1   force =     0.00000000    0.00000000    0.00000000
     atom   25 type  1   force =     0.00000000    0.00000000    0.00000000
     atom   26 type  1   force =     0.00000000    0.00000000    0.00000000
     atom   27 type  1   force =     0.00000000    0.00000000    0.00000000
     atom   28 type  1   force =     0.00000000    0.00000000    0.00000000
     atom   29 type  1   force =     0.00000000    0.00000000    0.00000000
     atom   30 type  1   force =     0.00000000    0.00000000    0.00000000
     atom   31 type  1   force =     0.00000000    0.00000000    0.00000000
     atom   32 type  1   force =     0.00000000    0.00000000    0.00000000
     atom   33 type  1   force =     0.00000000    0.00000000    0.00000000
     atom   34 type  1   force =     0.00000000    0.00000000    0.00000000
     atom   35 type  1   force =     0.00000000    0.00000000    0.00000000
     atom   36 type  1   force =     0.00000000    0.00000000    0.00000000
     The Hubbard contrib.    to forces
     atom    1 type  1   force =     0.00000000    0.00000000    0.00000000
     atom    2 type  1   force =     0.00000000    0.00000000    0.00000000
     atom    3 type  1   force =     0.00000000    0.00000000    0.00000000
     atom    4 type  1   force =     0.00000000    0.00000000    0.00000000
     atom    5 type  1   force =     0.00000000    0.00000000    0.00000000
     atom    6 type  1   force =     0.00000000    0.00000000    0.00000000
     atom    7 type  1   force =     0.00000000    0.00000000    0.00000000
     atom    8 type  1   force =     0.00000000    0.00000000    0.00000000
     atom    9 type  1   force =     0.00000000    0.00000000    0.00000000
     atom   10 type  1   force =     0.00000000    0.00000000    0.00000000
     atom   11 type  1   force =     0.00000000    0.00000000    0.00000000
     atom   12 type  1   force =     0.00000000    0.00000000    0.00000000
     atom   13 type  1   force =     0.00000000    0.00000000    0.00000000
     atom   14 type  1   force =     0.00000000    0.00000000    0.00000000
     atom   15 type  1   force =     0.00000000    0.00000000    0.00000000
     atom   16 type  1   force =     0.00000000    0.00000000    0.00000000
     atom   17 type  1   force =     0.00000000    0.00000000    0.00000000
     atom   18 type  1   force =     0.00000000    0.00000000    0.00000000
     atom   19 type  1   force =     0.00000000    0.00000000    0.00000000
     atom   20 type  1   force =     0.00000000    0.00000000    0.00000000
     atom   21 type  1   force =     0.00000000    0.00000000    0.00000000
     atom   22 type  1   force =     0.00000000    0.00000000    0.00000000
     atom   23 type  1   force =     0.00000000    0.00000000    0.00000000
     atom   24 type  1   force =     0.00000000    0.00000000    0.00000000
     atom   25 type  1   force =     0.00000000    0.00000000    0.00000000
     atom   26 type  1   force =     0.00000000    0.00000000    0.00000000
     atom   27 type  1   force =     0.00000000    0.00000000    0.00000000
     atom   28 type  1   force =     0.00000000    0.00000000    0.00000000
     atom   29 type  1   force =     0.00000000    0.00000000    0.00000000
     atom   30 type  1   force =     0.00000000    0.00000000    0.00000000
     atom   31 type  1   force =     0.00000000    0.00000000    0.00000000
     atom   32 type  1   force =     0.00000000    0.00000000    0.00000000
     atom   33 type  1   force =     0.00000000    0.00000000    0.00000000
     atom   34 type  1   force =     0.00000000    0.00000000    0.00000000
     atom   35 type  1   force =     0.00000000    0.00000000    0.00000000
     atom   36 type  1   force =     0.00000000    0.00000000    0.00000000
     The SCF correction term to forces
     atom    1 type  1   force =     0.00000001    0.00000001    0.00000090
     atom    2 type  1   force =     0.00000001    0.00000046   -0.00000024
     atom    3 type  1   force =    -0.00000005   -0.00000006    0.00000007
     atom    4 type  1   force =    -0.00000007    0.00000003   -0.00000029
     atom    5 type  1   force =    -0.00000005   -0.00000000    0.00000000
     atom    6 type  1   force =     0.00000002   -0.00000002    0.00000034
     atom    7 type  1   force =    -0.00000005    0.00000000    0.00000054
     atom    8 type  1   force =    -0.00000006    0.00000007    0.00000073
     atom    9 type  1   force =    -0.00000006   -0.00000002    0.00000140
     atom   10 type  1   force =     0.00000000   -0.00000001   -0.00000037
     atom   11 type  1   force =    -0.00000004    0.00000000   -0.00000012
     atom   12 type  1   force =    -0.00000007    0.00000005    0.00000019
     atom   13 type  1   force =    -0.00000008    0.00000004    0.00000049
     atom   14 type  1   force =    -0.00000005    0.00000000    0.00000067
     atom   15 type  1   force =    -0.00000001    0.00000007    0.00000035
     atom   16 type  1   force =    -0.00000003   -0.00000042    0.00000049
     atom   17 type  1   force =    -0.00000002    0.00000001   -0.00000100
     atom   18 type  1   force =    -0.00000002   -0.00000002   -0.00000099
     atom   19 type  1   force =    -0.00000003    0.00000001    0.00000094
     atom   20 type  1   force =     0.00000003    0.00000046   -0.00000029
     atom   21 type  1   force =     0.00000005   -0.00000008    0.00000004
     atom   22 type  1   force =     0.00000007   -0.00000001   -0.00000030
     atom   23 type  1   force =     0.00000006   -0.00000004    0.00000002
     atom   24 type  1   force =    -0.00000000   -0.00000002    0.00000034
     atom   25 type  1   force =     0.00000006   -0.00000003    0.00000055
     atom   26 type  1   force =     0.00000008    0.00000002    0.00000072
     atom   27 type  1   force =     0.00000003   -0.00000005    0.00000137
     atom   28 type  1   force =    -0.00000001   -0.00000001   -0.00000044
     atom   29 type  1   force =     0.00000004   -0.00000002   -0.00000014
     atom   30 type  1   force =     0.00000008    0.00000000    0.00000017
     atom   31 type  1   force =     0.00000008   -0.00000001    0.00000048
     atom   32 type  1   force =     0.00000005   -0.00000003    0.00000066
     atom   33 type  1   force =    -0.00000001    0.00000007    0.00000042
     atom   34 type  1   force =     0.00000002   -0.00000043    0.00000053
     atom   35 type  1   force =     0.00000004   -0.00000000   -0.00000100
     atom   36 type  1   force =     0.00000005   -0.00000004   -0.00000095

     Total force =     0.000996     Total SCF correction =     0.000004
     Energy error            =      2.0E-06 Ry
     Gradient error          =      2.8E-04 Ry/Bohr

     bfgs converged in  27 scf cycles and  25 bfgs steps
     (criteria: energy <  1.0E-05 Ry, force <  3.9E-04 Ry/Bohr)

     End of BFGS Geometry Optimization

     Final energy             =    -541.6631546422 Ry

     File ./Li/Lithium.bfgs deleted, as requested
Begin final coordinates

ATOMIC_POSITIONS (angstrom)
Li               0.0011385418       -0.0594449486       29.6062594203
Li               2.4281972588        4.0024250990       20.6433678437
Li               2.4285759093        0.9050246782       21.8294782504
Li               4.8584129823        4.7736186948       22.9471062715
Li               4.8581636332        1.6508428673       23.9564059196
Li               2.4288897677        5.6968258092       25.2119712009
Li               2.4285074305        2.3956696258       26.3112555603
Li               4.8582276447        6.4795944622       27.5301745069
Li               4.8585626433        3.2594698615       28.8139637372
Li               2.4288068444        6.4748507578       22.2864999701
Li               2.4295137523        3.2726493344       23.5039683426
Li               4.8581304570        7.2575033930       24.6039766386
Li               4.8579365565        4.0170503964       25.8583080258
Li               4.8576844844        0.8940727541       26.8682896841
Li               2.4294292436        4.7621410245       27.9875383154
Li               2.4298177766        1.6654484546       29.1733131867
Li               4.8569066972        5.7278067449       20.2104234409
Li               4.8575341929        2.4081395082       21.0027828636
Li               4.8591757064       -0.0594523639       29.6062807652
Li               7.2862810791        4.0023989143       20.6433937808
Li               7.2866629519        0.9050110993       21.8295033713
Li               9.7164584078        4.7736108687       22.9470952790
Li               9.7161967479        1.6508384591       23.9563796432
Li               7.2869870949        5.6968042452       25.2119822494
Li               7.2865692329        2.3956658484       26.3112868075
Li               9.7163013654        6.4795900971       27.5301927946
Li               9.7165890650        3.2594794987       28.8139754431
Li               7.2868889054        6.4748387058       22.2865203444
Li               7.2875814968        3.2726426924       23.5039898460
Li               9.7162138447        7.2574645650       24.6039909096
Li               9.7159708108        4.0170814579       25.8583189874
Li               9.7157130927        0.8940733657       26.8682952405
Li               7.2875162448        4.7621203883       27.9875544102
Li               7.2878788758        1.6654316843       29.1733412963
Li               9.7149612684        5.7277967504       20.2104395099
Li               9.7155773478        2.4081194141       21.0027601003
End final coordinates

     Writing all to output data dir ./Li/Lithium.save/ :
     XML data file

     General routines

     Parallel routines

     PAW routines

     Environ routines

   This run was terminated on:   8:59: 9   5Jan2025

   JOB DONE.