     Program PWSCF v.7.4 starts on 25Dec2024 at 13:37:55

     Reading input from espresso.pwi
Warning: card &CELL ignored
Warning: card    PRESS_CONV_THR   = 0.1 ignored
Warning: card    CELL_DOFREE      = 'ALL' ignored
Warning: card / ignored
Warning: card &FCP ignored
Warning: card / ignored
Warning: card &RISM ignored
Warning: card / ignored

     Current dimensions of program PWSCF are:
     Max number of different atomic species (ntypx) = 10
     Max number of k-points (npk) =  40000
     Max angular momentum in pseudopotentials (lmaxx) =  4

     IMPORTANT: XC functional enforced from input :
     Exchange-correlation= PBE
                           (   1   4   3   4   0   0   0)
     Any further DFT definition will be discarded
     Please, verify this is what you really want

     Reading input from environ.in:
     * using ionic solvent mode
     * setting boundary derivatives method to SSCS default
     * setting electrolyte-boundary derivatives method to SSCS default

Environ Warning (1001): card EOF ignored

     R & G space division:  proc/nbgrp/npool/nimage =     192
     Subspace diagonalization in iterative solution of the eigenvalue problem:
     a serial algorithm will be used

     Using Slab Decomposition

     bravais-lattice index     =           14
     lattice parameter (alat)  =      11.2436  a.u.
     unit-cell volume          =   10615.2843 (a.u.)^3
     number of atoms/cell      =           16
     number of atomic types    =            1
     number of electrons       =        48.00
     number of Kohn-Sham states=           36
     kinetic-energy cutoff     =      80.0000  Ry
     charge density cutoff     =     800.0000  Ry
     scf convergence threshold =      1.0E-14
     mixing beta               =       0.2000
     number of iterations used =            8  local-TF  mixing
     Exchange-correlation= PBE
                           (   1   4   3   4   0   0   0)

                                  Environ Setup Summary

          O. Andreussi, I. Dabo and N. Marzari, J. Chem. Phys. 136, 064102 (2012)
          F. Nattino, M. Truscott, N. Marzari, and O. Andreussi, J. Chem. Phys. 150, 041722 (2019)

     in publications or presentations arising from this work.

     Parameters

     compensation onset threshold      =               0.1000E+00
     static permittivity               =                    89.90
     surface tension in input (dyn/cm) =                    37.30
     surface tension in internal units =               0.4792E-04

     Solvent Boundary

     solvent mode                      =                    ionic
     derivatives method                =                   lowmem
     electrolyte derivatives method    =                   lowmem
     numerical core for derivatives    =                      fft
     switching function adopted        =                     SCCS
     density limit for vacuum region   =               0.5000E-02
     density limit for bulk solvent    =               0.1000E-03
     soft-sphere radius mode           =                    bondi
     soft-sphere softness              =                     0.50
     alpha                             =                     1.32

     Electrostatic Setup

     electrostatic problem to solve    =                    modpb
     numerical solver adopted          =                   newton
     type of auxiliary density adopted =                     none
     numerical core for poisson        =                      fft
     adopting a nested solver scheme
     inner solver                      =                       cg
     inner core                        =                      fft
     type of pbc corrections           =                parabolic
     numerical core for corrections    =                      1da

     celldm(1)=  11.243615  celldm(2)=   1.000000  celldm(3)=   7.921182
     celldm(4)=   0.000000  celldm(5)=   0.000000  celldm(6)=  -0.333333

     crystal axes: (cart. coord. in units of alat)
               a(1) = (   1.000000   0.000000   0.000000 )
               a(2) = (  -0.333333   0.942809   0.000000 )
               a(3) = (   0.000000   0.000000   7.921182 )

     reciprocal axes: (cart. coord. in units 2 pi/alat)
               b(1) = (  1.000000  0.353553  0.000000 )
               b(2) = (  0.000000  1.060660  0.000000 )
               b(3) = (  0.000000  0.000000  0.126244 )

     PseudoPot. # 1 for Li read from file:
     /home/ba3g18/Repos/Pseudopotentials/pslibrary.1.0.0/pbe/PSEUDOPOTENTIALS/Li.pbe-sl-kjpaw_psl.1.0.0.UPF
     MD5 check sum: 3f4d2cafebb47c6c3aa8ed472e6f074d
     Pseudo is Projector augmented-wave, Zval =  3.0
     Generated using 'atomic' code by A. Dal Corso  v.7.4
     Shape of augmentation charge: PSQ
     Using radial grid of 1017 points,  4 beta functions with:
                l(1) =   0
                l(2) =   0
                l(3) =   1
                l(4) =   1
     Q(r) pseudized with 0 coefficients

     atomic species   valence    mass     pseudopotential
     Li                3.00     6.94000     Li( 1.00)

      2 Sym. Ops. (no inversion) found

                                    s                        frac. trans.

      isym =  1     identity

 cryst.   s( 1) = (     1          0          0      )
                  (     0          1          0      )
                  (     0          0          1      )

 cart.    s( 1) = (  1.0000000  0.0000000  0.0000000 )
                  (  0.0000000  1.0000000  0.0000000 )
                  (  0.0000000  0.0000000  1.0000000 )

      isym =  2     180 deg rotation - cart. axis [0,0,1]

 cryst.   s( 2) = (    -1          0          0      )
                  (     0         -1          0      )
                  (     0          0          1      )

 cart.    s( 2) = ( -1.0000000  0.0000000  0.0000000 )
                  (  0.0000000 -1.0000000  0.0000000 )
                  (  0.0000000  0.0000000  1.0000000 )

     point group C_2  (2)
     there are  2 classes
     the character table:

       E     C2
A      1.00  1.00
B      1.00 -1.00

     the symmetry operations in each class and the name of the first element:

     E        1
          identity
     C2       2
          180 deg rotation - cart. axis [0,0,1]

   Cartesian axes

     site n.     atom                  positions (alat units)
         1        Li     tau(   1) = (   0.1666620   0.2357045   3.3634848  )
         2        Li     tau(   2) = (   0.3333333   0.4714046   3.7575258  )
         3        Li     tau(   3) = (   0.1666724   0.2356999   4.1636470  )
         4        Li     tau(   4) = (   0.3333333   0.4714046   4.5576956  )
         5        Li     tau(   5) = (   0.0000037   0.7071107   3.3634986  )
         6        Li     tau(   6) = (   0.1666667   0.9428090   3.7575379  )
         7        Li     tau(   7) = (  -0.0000058   0.7071014   4.1636551  )
         8        Li     tau(   8) = (   0.1666667   0.9428090   4.5576991  )
         9        Li     tau(   9) = (   0.6666630   0.2356983   3.3634986  )
        10        Li     tau(  10) = (   0.8333333   0.4714046   3.7575349  )
        11        Li     tau(  11) = (   0.6666725   0.2357077   4.1636551  )
        12        Li     tau(  12) = (   0.8333333   0.4714046   4.5577110  )
        13        Li     tau(  13) = (   0.5000047   0.7071046   3.3634848  )
        14        Li     tau(  14) = (   0.6666667   0.9428090   3.7575265  )
        15        Li     tau(  15) = (   0.4999943   0.7071091   4.1636470  )
        16        Li     tau(  16) = (   0.6666667   0.9428090   4.5576957  )

   Crystallographic axes

     site n.     atom                  positions (cryst. coord.)
         1        Li     tau(   1) = (  0.2499961  0.2500024  0.4246190  )
         2        Li     tau(   2) = (  0.4999999  0.5000001  0.4743643  )
         3        Li     tau(   3) = (  0.2500049  0.2499975  0.5256345  )
         4        Li     tau(   4) = (  0.4999999  0.5000001  0.5753807  )
         5        Li     tau(   5) = (  0.2500049  0.7500042  0.4246208  )
         6        Li     tau(   6) = (  0.4999997  1.0000001  0.4743658  )
         7        Li     tau(   7) = (  0.2499921  0.7499943  0.5256356  )
         8        Li     tau(   8) = (  0.4999997  1.0000000  0.5753812  )
         9        Li     tau(   9) = (  0.7499948  0.2499959  0.4246208  )
        10        Li     tau(  10) = (  0.9999999  0.5000001  0.4743654  )
        11        Li     tau(  11) = (  0.7500076  0.2500058  0.5256356  )
        12        Li     tau(  12) = (  0.9999999  0.5000001  0.5753827  )
        13        Li     tau(  13) = (  0.7500036  0.7499977  0.4246190  )
        14        Li     tau(  14) = (  0.9999997  1.0000000  0.4743643  )
        15        Li     tau(  15) = (  0.7499948  0.7500025  0.5256345  )
        16        Li     tau(  16) = (  0.9999997  1.0000000  0.5753807  )

     number of k points=    61  Marzari-Vanderbilt smearing, width (Ry)=  0.0100
                       cart. coord. in units 2pi/alat
        k(    1) = (   0.0000000   0.0000000   0.0000000), wk =   0.0165289
        k(    2) = (   0.0000000   0.0964237   0.0000000), wk =   0.0330579
        k(    3) = (   0.0000000   0.1928473   0.0000000), wk =   0.0330579
        k(    4) = (   0.0000000   0.2892710   0.0000000), wk =   0.0330579
        k(    5) = (   0.0000000   0.3856946   0.0000000), wk =   0.0330579
        k(    6) = (   0.0000000   0.4821183   0.0000000), wk =   0.0330579
        k(    7) = (   0.0909091   0.0321412   0.0000000), wk =   0.0330579
        k(    8) = (   0.0909091   0.1285648   0.0000000), wk =   0.0330579
        k(    9) = (   0.0909091   0.2249885   0.0000000), wk =   0.0330579
        k(   10) = (   0.0909091   0.3214122   0.0000000), wk =   0.0330579
        k(   11) = (   0.0909091   0.4178358   0.0000000), wk =   0.0330579
        k(   12) = (   0.0909091   0.5142595   0.0000000), wk =   0.0330579
        k(   13) = (   0.0909091  -0.4499771   0.0000000), wk =   0.0330579
        k(   14) = (   0.0909091  -0.3535534   0.0000000), wk =   0.0330579
        k(   15) = (   0.0909091  -0.2571298   0.0000000), wk =   0.0330579
        k(   16) = (   0.0909091  -0.1607061   0.0000000), wk =   0.0330579
        k(   17) = (   0.0909091  -0.0642825   0.0000000), wk =   0.0330579
        k(   18) = (   0.1818182   0.0642824   0.0000000), wk =   0.0330579
        k(   19) = (   0.1818182   0.1607060   0.0000000), wk =   0.0330579
        k(   20) = (   0.1818182   0.2571297   0.0000000), wk =   0.0330579
        k(   21) = (   0.1818182   0.3535533   0.0000000), wk =   0.0330579
        k(   22) = (   0.1818182   0.4499770   0.0000000), wk =   0.0330579
        k(   23) = (   0.1818182   0.5464007   0.0000000), wk =   0.0330579
        k(   24) = (   0.1818182  -0.4178359   0.0000000), wk =   0.0330579
        k(   25) = (   0.1818182  -0.3214123   0.0000000), wk =   0.0330579
        k(   26) = (   0.1818182  -0.2249886   0.0000000), wk =   0.0330579
        k(   27) = (   0.1818182  -0.1285649   0.0000000), wk =   0.0330579
        k(   28) = (   0.1818182  -0.0321413   0.0000000), wk =   0.0330579
[...]
        k(   54) = (   0.4545455   0.2727273   0.0000000), wk =   0.0330579
        k(   55) = (   0.4545455   0.3636364   0.0000000), wk =   0.0330579
        k(   56) = (   0.4545455   0.4545455   0.0000000), wk =   0.0330579
        k(   57) = (   0.4545455  -0.4545455   0.0000000), wk =   0.0330579
        k(   58) = (   0.4545455  -0.3636364   0.0000000), wk =   0.0330579
        k(   59) = (   0.4545455  -0.2727273   0.0000000), wk =   0.0330579
        k(   60) = (   0.4545455  -0.1818182   0.0000000), wk =   0.0330579
        k(   61) = (   0.4545455  -0.0909091   0.0000000), wk =   0.0330579

     Initial potential from superposition of free atoms

     starting charge      47.9263, renormalised to      48.0000

     negative rho (up, down):  1.937E-03 0.000E+00
     Starting wfcs are random
     Checking if some PAW data can be deallocated...

     Self-consistent Calculation

     iteration #  1     ecut=    80.00 Ry     beta= 0.20
     Davidson diagonalization with overlap

     ethr =  1.00E-02,  avg # of iterations = 12.0

     negative rho (up, down):  3.296E-05 0.000E+00

     total energy              =    -239.74989794 Ry
     estimated scf accuracy    <       2.09758394 Ry
     electrostatic embedding   =       0.00000000 Ry
     cavitation energy         =       0.01235683 Ry
     electrolyte free energy   =       0.00456895 Ry
     correction to one-el term =       0.00000000 Ry

[...]

     add environment contribution to local potential

[...]

     c_bands:  1 eigenvalues not converged
     c_bands:  1 eigenvalues not converged
     c_bands:  1 eigenvalues not converged
     c_bands:  1 eigenvalues not converged
     c_bands:  1 eigenvalues not converged
     c_bands:  2 eigenvalues not converged
     c_bands:  1 eigenvalues not converged
     c_bands:  1 eigenvalues not converged
     c_bands:  2 eigenvalues not converged
     c_bands:  1 eigenvalues not converged
     c_bands:  1 eigenvalues not converged
     c_bands:  1 eigenvalues not converged
     c_bands:  2 eigenvalues not converged
     c_bands:  1 eigenvalues not converged
     c_bands:  1 eigenvalues not converged
     c_bands:  2 eigenvalues not converged
     c_bands:  1 eigenvalues not converged
     c_bands:  1 eigenvalues not converged
     c_bands:  1 eigenvalues not converged
     c_bands:  1 eigenvalues not converged
     c_bands:  1 eigenvalues not converged
     c_bands:  1 eigenvalues not converged
     c_bands:  1 eigenvalues not converged
     c_bands:  1 eigenvalues not converged
     c_bands:  1 eigenvalues not converged
     c_bands:  1 eigenvalues not converged
     ethr =  7.51E-05,  avg # of iterations = 15.7

[...]

     c_bands:  1 eigenvalues not converged
     c_bands:  1 eigenvalues not converged
     ethr =  4.94E-09,  avg # of iterations =  7.1

[...]

     add environment contribution to local potential

     total energy              =    -240.55038893 Ry
     estimated scf accuracy    <          1.1E-14 Ry
     electrostatic embedding   =      -0.00929746 Ry
     cavitation energy         =       0.01235683 Ry
     electrolyte free energy   =      -0.00073324 Ry
     correction to one-el term =       0.25907847 Ry

     iteration #228     ecut=    80.00 Ry     beta= 0.20
     Davidson diagonalization with overlap

     ethr =  1.00E-13,  avg # of iterations =  1.0

     negative rho (up, down):  2.108E-04 0.000E+00

     End of self-consistent calculation

          k = 0.0000 0.0000 0.0000 (128001 PWs)   bands (ev):

   -49.7347 -49.7347 -49.7251 -49.7251 -49.7251 -49.7250 -49.7185 -49.7185
   -49.2973 -49.2873 -49.2827 -49.2827 -49.2827 -49.2827 -49.2795 -49.2726
    -6.2267  -5.6193  -4.5053  -3.2440  -2.7902  -2.7902  -2.7902  -2.7902
    -2.5489  -2.5377  -2.5377  -2.5377  -2.5377  -2.4118  -1.7007  -0.4010
    -0.2924  -0.2849  -0.1027   0.0204

     occupation numbers
     1.0000   1.0000   1.0000   1.0000   1.0000   1.0000   1.0000   1.0000
     1.0000   1.0000   1.0000   1.0000   1.0000   1.0000   1.0000   1.0000
     1.0000   1.0000   1.0000   1.0005   0.3292   0.3292   0.3291   0.3291
     0.0006   0.0004   0.0004   0.0004   0.0004   0.0000   0.0000   0.0000
     0.0000   0.0000   0.0000   0.0000

[...]

          k = 0.4545 0.0643 0.0000 (128255 PWs)   bands (ev):

   -49.7306 -49.7306 -49.7288 -49.7288 -49.7222 -49.7222 -49.7217 -49.7217
   -49.2923 -49.2893 -49.2841 -49.2836 -49.2823 -49.2815 -49.2781 -49.2762
    -5.5641  -5.0266  -4.9564  -4.4313  -3.8246  -3.4399  -3.3144  -2.8253
    -2.4898  -2.4869  -2.0223  -1.9583  -1.6798  -1.6672  -1.6014  -1.5488
    -0.9544  -0.4023   0.3682   0.5919

     occupation numbers
     1.0000   1.0000   1.0000   1.0000   1.0000   1.0000   1.0000   1.0000
     1.0000   1.0000   1.0000   1.0000   1.0000   1.0000   1.0000   1.0000
     1.0000   1.0000   1.0000   1.0000   1.0000   1.0000   1.0000   0.5070
     0.0001   0.0000   0.0000   0.0000   0.0000   0.0000   0.0000   0.0000
     0.0000   0.0000   0.0000   0.0000

     the Fermi energy is    -2.8050 ev

!    total energy              =    -240.55038893 Ry
     total all-electron energy =      -240.550519 Ry
     estimated scf accuracy    <          6.8E-15 Ry
     smearing contrib. (-TS)   =      -0.00028616 Ry
     internal energy E=F+TS    =    -240.55010277 Ry

     The total energy is F=E-TS. E is the sum of the following terms:
     one-electron contribution =   -2490.88753476 Ry
     hartree contribution      =    1219.29729605 Ry
     xc contribution           =     -57.35550485 Ry
     ewald contribution        =    1086.72460558 Ry
     one-center paw contrib.   =       1.40962981 Ry
      -> PAW hartree energy AE =       7.44316464 Ry
      -> PAW hartree energy PS =      -7.22093706 Ry
      -> PAW xc energy AE      =      -3.48943932 Ry
      -> PAW xc energy PS      =       3.35525188 Ry
      -> total E_H with PAW    =    1219.51952363 Ry
      -> total E_XC with PAW   =     -57.48969229 Ry
     electrostatic embedding   =      -0.00929745 Ry
     cavitation energy         =       0.01235683 Ry
     electrolyte free energy   =      -0.00073324 Ry
     correction to one-el term =       0.25907926 Ry

     WARNING: you are using the parabolic pbc correction;
              the potential shift above must be added to
              band and Fermi energies.

     convergence has been achieved in 228 iterations
     The dielectric solvent contribution to forces
     atom    1 type  1   force =     0.00000014   -0.00000011    0.00643281
     atom    2 type  1   force =    -0.00000000   -0.00000000    0.00182577
     atom    3 type  1   force =    -0.00000004    0.00000002   -0.00183897
     atom    4 type  1   force =    -0.00000000    0.00000002   -0.00644685
     atom    5 type  1   force =     0.00000015    0.00000023    0.00643335
     atom    6 type  1   force =     0.00000000   -0.00000000    0.00182567
     atom    7 type  1   force =    -0.00000000   -0.00000001   -0.00183902
     atom    8 type  1   force =    -0.00000001   -0.00000002   -0.00644721
     atom    9 type  1   force =    -0.00000016   -0.00000023    0.00643336
     atom   10 type  1   force =     0.00000000   -0.00000000    0.00182574
     atom   11 type  1   force =     0.00000000    0.00000001   -0.00183902
     atom   12 type  1   force =    -0.00000000    0.00000002   -0.00644574
     atom   13 type  1   force =    -0.00000014    0.00000011    0.00643280
     atom   14 type  1   force =     0.00000000    0.00000000    0.00182577
     atom   15 type  1   force =     0.00000004   -0.00000002   -0.00183897
     atom   16 type  1   force =    -0.00000001   -0.00000002   -0.00644685

     Forces acting on atoms (cartesian axes, Ry/au):

     atom    1 type  1   force =     0.00000018   -0.00000006   -0.00000075
     atom    2 type  1   force =     0.00000000    0.00000000    0.00000093
     atom    3 type  1   force =    -0.00000025    0.00000004    0.00000054
     atom    4 type  1   force =     0.00000000    0.00000000   -0.00000058
     atom    5 type  1   force =    -0.00000019   -0.00000028   -0.00000097
     atom    6 type  1   force =     0.00000000    0.00000000    0.00000171
     atom    7 type  1   force =     0.00000039    0.00000028    0.00000068
     atom    8 type  1   force =     0.00000000    0.00000000   -0.00000044
     atom    9 type  1   force =     0.00000019    0.00000028   -0.00000097
     atom   10 type  1   force =     0.00000000    0.00000000    0.00000016
     atom   11 type  1   force =    -0.00000039   -0.00000028    0.00000068
     atom   12 type  1   force =     0.00000000    0.00000000   -0.00000095
     atom   13 type  1   force =    -0.00000018    0.00000006   -0.00000075
     atom   14 type  1   force =     0.00000000    0.00000000    0.00000106
     atom   15 type  1   force =     0.00000025   -0.00000004    0.00000054
     atom   16 type  1   force =     0.00000000    0.00000000   -0.00000089
     The non-local contrib.  to forces
     atom    1 type  1   force =    -0.00000081    0.00000072   -0.05411761
     atom    2 type  1   force =     0.00000000    0.00000000    0.00007541
     atom    3 type  1   force =     0.00000074   -0.00000051   -0.00007312
     atom    4 type  1   force =     0.00000000    0.00000000    0.05411003
     atom    5 type  1   force =    -0.00000004   -0.00000044   -0.05411246
     atom    6 type  1   force =     0.00000000    0.00000000    0.00007461
     atom    7 type  1   force =    -0.00000040    0.00000009   -0.00007317
     atom    8 type  1   force =     0.00000000    0.00000000    0.05411174
     atom    9 type  1   force =     0.00000004    0.00000044   -0.05411246
     atom   10 type  1   force =     0.00000000    0.00000000    0.00007480
     atom   11 type  1   force =     0.00000040   -0.00000009   -0.00007317
     atom   12 type  1   force =     0.00000000    0.00000000    0.05411600
     atom   13 type  1   force =     0.00000081   -0.00000072   -0.05411761
     atom   14 type  1   force =     0.00000000    0.00000000    0.00007503
     atom   15 type  1   force =    -0.00000074    0.00000051   -0.00007312
     atom   16 type  1   force =     0.00000000    0.00000000    0.05411019
     The ionic contribution  to forces
     atom    1 type  1   force =    -0.00000020    0.00000222   -9.03762424
     atom    2 type  1   force =    -0.00000006   -0.00000007   -3.02618731
     atom    3 type  1   force =    -0.00000114   -0.00000175    3.02605424
     atom    4 type  1   force =    -0.00000005   -0.00000011    9.03747372
     atom    5 type  1   force =    -0.00000454   -0.00000751   -9.03745842
     atom    6 type  1   force =     0.00000007    0.00000008   -3.02599425
     atom    7 type  1   force =     0.00000609    0.00000682    3.02617862
     atom    8 type  1   force =     0.00000004    0.00000012    9.03751756
     atom    9 type  1   force =     0.00000451    0.00000750   -9.03745822
     atom   10 type  1   force =    -0.00000002   -0.00000005   -3.02606410
     atom   11 type  1   force =    -0.00000614   -0.00000685    3.02617871
     atom   12 type  1   force =    -0.00000001   -0.00000011    9.03765734
     atom   13 type  1   force =     0.00000017   -0.00000224   -9.03762441
     atom   14 type  1   force =     0.00000011    0.00000010   -3.02617456
     atom   15 type  1   force =     0.00000109    0.00000172    3.02605413
     atom   16 type  1   force =     0.00000007    0.00000014    9.03747118
     The local contribution  to forces
     atom    1 type  1   force =     0.00005666   -0.00001343    9.08530750
     atom    2 type  1   force =     0.00005792   -0.00002187    3.02428706
     atom    3 type  1   force =     0.00005606   -0.00000743   -3.02414248
     atom    4 type  1   force =     0.00005736   -0.00002303   -9.08513749
     atom    5 type  1   force =     0.00005985   -0.00000310    9.08513829
     atom    6 type  1   force =     0.00010287   -0.00001645    3.02409569
     atom    7 type  1   force =     0.00005056   -0.00001632   -3.02426520
     atom    8 type  1   force =     0.00010410   -0.00001410   -9.08518253
     atom    9 type  1   force =     0.00005140   -0.00001797    9.08513466
     atom   10 type  1   force =     0.00005868   -0.00002129    3.02416373
     atom   11 type  1   force =     0.00006121   -0.00000304   -3.02426641
     atom   12 type  1   force =     0.00005813   -0.00002245   -9.08532855
     atom   13 type  1   force =     0.00005459   -0.00000764    9.08530931
     atom   14 type  1   force =     0.00010363   -0.00001587    3.02427483
     atom   15 type  1   force =     0.00005571   -0.00001193   -3.02414066
     atom   16 type  1   force =     0.00010486   -0.00001293   -9.08513543
     The core correction contribution to forces
     atom    1 type  1   force =     0.00000000    0.00000000    0.00000000
     atom    2 type  1   force =     0.00000000    0.00000000    0.00000000
     atom    3 type  1   force =     0.00000000    0.00000000    0.00000000
     atom    4 type  1   force =     0.00000000    0.00000000    0.00000000
     atom    5 type  1   force =     0.00000000    0.00000000    0.00000000
     atom    6 type  1   force =     0.00000000    0.00000000    0.00000000
     atom    7 type  1   force =     0.00000000    0.00000000    0.00000000
     atom    8 type  1   force =     0.00000000    0.00000000    0.00000000
     atom    9 type  1   force =     0.00000000    0.00000000    0.00000000
     atom   10 type  1   force =     0.00000000    0.00000000    0.00000000
     atom   11 type  1   force =     0.00000000    0.00000000    0.00000000
     atom   12 type  1   force =     0.00000000    0.00000000    0.00000000
     atom   13 type  1   force =     0.00000000    0.00000000    0.00000000
     atom   14 type  1   force =     0.00000000    0.00000000    0.00000000
     atom   15 type  1   force =     0.00000000    0.00000000    0.00000000
     atom   16 type  1   force =     0.00000000    0.00000000    0.00000000
     The Hubbard contrib.    to forces
     atom    1 type  1   force =     0.00000000    0.00000000    0.00000000
     atom    2 type  1   force =     0.00000000    0.00000000    0.00000000
     atom    3 type  1   force =     0.00000000    0.00000000    0.00000000
     atom    4 type  1   force =     0.00000000    0.00000000    0.00000000
     atom    5 type  1   force =     0.00000000    0.00000000    0.00000000
     atom    6 type  1   force =     0.00000000    0.00000000    0.00000000
     atom    7 type  1   force =     0.00000000    0.00000000    0.00000000
     atom    8 type  1   force =     0.00000000    0.00000000    0.00000000
     atom    9 type  1   force =     0.00000000    0.00000000    0.00000000
     atom   10 type  1   force =     0.00000000    0.00000000    0.00000000
     atom   11 type  1   force =     0.00000000    0.00000000    0.00000000
     atom   12 type  1   force =     0.00000000    0.00000000    0.00000000
     atom   13 type  1   force =     0.00000000    0.00000000    0.00000000
     atom   14 type  1   force =     0.00000000    0.00000000    0.00000000
     atom   15 type  1   force =     0.00000000    0.00000000    0.00000000
     atom   16 type  1   force =     0.00000000    0.00000000    0.00000000
     The SCF correction term to forces
     atom    1 type  1   force =     0.00000000    0.00000000   -0.00000002
     atom    2 type  1   force =     0.00000000    0.00000000   -0.00000001
     atom    3 type  1   force =    -0.00000001    0.00000001    0.00000002
     atom    4 type  1   force =     0.00000000    0.00000000    0.00000001
     atom    5 type  1   force =    -0.00000000    0.00000000   -0.00000002
     atom    6 type  1   force =     0.00000000   -0.00000000   -0.00000001
     atom    7 type  1   force =     0.00000000    0.00000000    0.00000000
     atom    8 type  1   force =     0.00000000   -0.00000000    0.00000001
     atom    9 type  1   force =     0.00000000   -0.00000000   -0.00000002
     atom   10 type  1   force =     0.00000000    0.00000000   -0.00000001
     atom   11 type  1   force =    -0.00000000   -0.00000000    0.00000000
     atom   12 type  1   force =     0.00000000    0.00000000    0.00000001
     atom   13 type  1   force =    -0.00000000   -0.00000000   -0.00000002
     atom   14 type  1   force =     0.00000000    0.00000000   -0.00000001
     atom   15 type  1   force =     0.00000001   -0.00000001    0.00000002
     atom   16 type  1   force =     0.00000000   -0.00000000    0.00000001

     Total force =     0.000004     Total SCF correction =     0.000000
     Message from routine punch:
     Nothing written, as per user request (disk_io='none')

     General routines

     Parallel routines

     PAW routines

     Environ routines

   This run was terminated on:  14: 0:25  25Dec2024

   JOB DONE.