     Program PWSCF v.7.4 starts on 12Jan2025 at  5:37:18
        Git branch: develop
        Last git commit: e877ff360aceba4b8d76ffc2fb1c70545fc5dd57
        Last git commit date: Sat Jan 4 12:56:15 2025 +0000
        Last git commit subject: Merge branch 'orthoU' into 'develop'

     Reading input from espresso.pwi
Warning: card &CELL ignored
Warning: card    PRESS_CONV_THR   = 0.1 ignored
Warning: card    CELL_DOFREE      = 'ALL' ignored
Warning: card / ignored
Warning: card &FCP ignored
Warning: card / ignored
Warning: card &RISM ignored
Warning: card / ignored

     Current dimensions of program PWSCF are:
     Max number of different atomic species (ntypx) = 10
     Max number of k-points (npk) =  40000
     Max angular momentum in pseudopotentials (lmaxx) =  4

     IMPORTANT: XC functional enforced from input :
     Exchange-correlation= PBE
                           (   1   4   3   4   0   0   0)
     Any further DFT definition will be discarded
     Please, verify this is what you really want

     Reading input from environ.in:
     * using ionic solvent mode
     * setting boundary derivatives method to SSCS default
     * setting electrolyte-boundary derivatives method to SSCS default

Environ Warning (1001): card EOF ignored

     Found identity + ( -0.5000 -0.0000 -0.0000) symmetry
     This is a supercell, fractional translations are disabled

     K-points division:     npool     =       2
     R & G space division:  proc/nbgrp/npool/nimage =     220
     Subspace diagonalization in iterative solution of the eigenvalue problem:
     a serial algorithm will be used

     Using Slab Decomposition

     bravais-lattice index     =           12
     lattice parameter (alat)  =      18.3607  a.u.
     unit-cell volume          =   26895.2624 (a.u.)^3
     number of atoms/cell      =           44
     number of atomic types    =            1
     number of electrons       =       132.00
     number of Kohn-Sham states=           99
     kinetic-energy cutoff     =      80.0000  Ry
     charge density cutoff     =     800.0000  Ry
     scf convergence threshold =      1.0E-14
     mixing beta               =       0.2000
     number of iterations used =            8  local-TF  mixing
     Exchange-correlation= PBE
                           (   1   4   3   4   0   0   0)

                                  Environ Setup Summary

          O. Andreussi, I. Dabo and N. Marzari, J. Chem. Phys. 136, 064102 (2012)
          F. Nattino, M. Truscott, N. Marzari, and O. Andreussi, J. Chem. Phys. 150, 041722 (2019)

     in publications or presentations arising from this work.

     Parameters

     compensation onset threshold      =               0.1000E+00
     static permittivity               =                    89.90
     surface tension in input (dyn/cm) =                    37.30
     surface tension in internal units =               0.4792E-04

     Solvent Boundary

     solvent mode                      =                    ionic
     derivatives method                =                   lowmem
     electrolyte derivatives method    =                   lowmem
     numerical core for derivatives    =                      fft
     switching function adopted        =                     SCCS
     density limit for vacuum region   =               0.5000E-02
     density limit for bulk solvent    =               0.1000E-03
     soft-sphere radius mode           =                    bondi
     soft-sphere softness              =                     0.50
     alpha                             =                     1.32

     Electrostatic Setup

     electrostatic problem to solve    =                    modpb
     numerical solver adopted          =                   newton
     type of auxiliary density adopted =                     none
     numerical core for poisson        =                      fft
     adopting a nested solver scheme
     inner solver                      =                       cg
     inner core                        =                      fft
     type of pbc corrections           =                parabolic
     numerical core for corrections    =                      1da

     >>>>> Grand-Canonical SCF is activated <<<<<
     Initial Total Charge  =     0.000000 e
     Target Fermi Energy   =    -4.404000 eV
     Thr. of Fermi Energy  =     0.001000 eV
     Wave-shift of Kerker  =     0.400000 bohr^-1
     Wave-shift of Hartree =     1.500000 bohr^-1
     Mixing Rate of Fermi  =     0.050000

     celldm(1)=  18.360747  celldm(2)=   0.866025  celldm(3)=   5.240449
     celldm(4)=  -0.288675  celldm(5)=   0.000000  celldm(6)=   0.000000

     crystal axes: (cart. coord. in units of alat)
               a(1) = (   1.000000   0.000000   0.000000 )
               a(2) = (  -0.250000   0.829156   0.000000 )
               a(3) = (   0.000000   0.000000   5.240449 )

     reciprocal axes: (cart. coord. in units 2 pi/alat)
               b(1) = (  1.000000  0.301511  0.000000 )
               b(2) = (  0.000000  1.206046  0.000000 )
               b(3) = (  0.000000  0.000000  0.190823 )

     PseudoPot. # 1 for Li read from file:
     /home/mmm1182/Repos/Pseudopotentials/pslibrary/Li.pbe-sl-kjpaw_psl.1.0.0.UPF
     MD5 check sum: f40bb4162937df3f7c561f1969c76545
     Pseudo is Projector augmented-wave, Zval =  3.0
     Generated using 'atomic' code by A. Dal Corso  v.7.3.1
     Shape of augmentation charge: PSQ
     Using radial grid of 1017 points,  4 beta functions with:
                l(1) =   0
                l(2) =   0
                l(3) =   1
                l(4) =   1
     Q(r) pseudized with 0 coefficients

     atomic species   valence    mass     pseudopotential
     Li                3.00     6.94000     Li( 1.00)

     No symmetry found

                                    s                        frac. trans.

      isym =  1     identity

 cryst.   s( 1) = (     1          0          0      )
                  (     0          1          0      )
                  (     0          0          1      )

 cart.    s( 1) = (  1.0000000  0.0000000  0.0000000 )
                  (  0.0000000  1.0000000  0.0000000 )
                  (  0.0000000  0.0000000  1.0000000 )

     point group C_1 (1)
     there are  1 classes
     the character table:

       E
A      1.00

     the symmetry operations in each class and the name of the first element:

     E        1
          identity

   Cartesian axes

     site n.     atom                  positions (alat units)
         1        Li     tau(   1) = (  -0.2499372   0.6802269   1.9822579  )
         2        Li     tau(   2) = (   0.2498270   0.2639169   3.2051653  )
         3        Li     tau(   3) = (  -0.0000753   0.4760286   3.0374020  )
         4        Li     tau(   4) = (   0.2499414   0.6720955   2.9160152  )
         5        Li     tau(   5) = (   0.2498566   0.0827835   2.7966205  )
         6        Li     tau(   6) = (   0.0000049   0.3034729   2.7111358  )
         7        Li     tau(   7) = (   0.2500492   0.5223846   2.6008772  )
         8        Li     tau(   8) = (  -0.0000192   0.7509336   2.4845098  )
         9        Li     tau(   9) = (   0.0001196   0.1640710   2.3523621  )
        10        Li     tau(  10) = (   0.2501175   0.3755655   2.2594656  )
        11        Li     tau(  11) = (   0.0000997   0.5664360   2.1870155  )
        12        Li     tau(  12) = (  -0.0001175   0.1520796   2.9809847  )
        13        Li     tau(  13) = (   0.2498802   0.3635759   2.8880878  )
        14        Li     tau(  14) = (   0.0000192   0.6058678   2.7559399  )
        15        Li     tau(  15) = (   0.2499509   0.8344138   2.6395733  )
        16        Li     tau(  16) = (   0.2499950   0.2241708   2.5293137  )
        17        Li     tau(  17) = (   0.0001435   0.4448636   2.4438303  )
        18        Li     tau(  18) = (   0.2500586   0.6847057   2.3244352  )
        19        Li     tau(  19) = (   0.2500751   0.0516165   2.2030478  )
        20        Li     tau(  20) = (   0.0001727   0.2637269   2.0352847  )
        21        Li     tau(  21) = (   0.2499370   0.6765739   3.2581931  )
        22        Li     tau(  22) = (  -0.0000999   0.7903648   3.0534339  )
        23        Li     tau(  23) = (   0.2500629   0.6802269   1.9822579  )
        24        Li     tau(  24) = (   0.7498271   0.2639169   3.2051653  )
        25        Li     tau(  25) = (   0.4999247   0.4760286   3.0374020  )
        26        Li     tau(  26) = (   0.7499414   0.6720955   2.9160152  )
        27        Li     tau(  27) = (   0.7498566   0.0827834   2.7966205  )
        28        Li     tau(  28) = (   0.5000049   0.3034729   2.7111358  )
        29        Li     tau(  29) = (   0.7500493   0.5223846   2.6008771  )
        30        Li     tau(  30) = (   0.4999808   0.7509335   2.4845098  )
        31        Li     tau(  31) = (   0.5001196   0.1640710   2.3523621  )
        32        Li     tau(  32) = (   0.7501175   0.3755655   2.2594657  )
        33        Li     tau(  33) = (   0.5000997   0.5664360   2.1870156  )
        34        Li     tau(  34) = (   0.4998825   0.1520796   2.9809847  )
        35        Li     tau(  35) = (   0.7498802   0.3635758   2.8880878  )
        36        Li     tau(  36) = (   0.5000192   0.6058678   2.7559399  )
        37        Li     tau(  37) = (   0.7499509   0.8344138   2.6395733  )
        38        Li     tau(  38) = (   0.7499951   0.2241708   2.5293138  )
        39        Li     tau(  39) = (   0.5001435   0.4448636   2.4438303  )
        40        Li     tau(  40) = (   0.7500586   0.6847057   2.3244352  )
        41        Li     tau(  41) = (   0.7500751   0.0516165   2.2030479  )
        42        Li     tau(  42) = (   0.5001728   0.2637269   2.0352847  )
        43        Li     tau(  43) = (   0.7499371   0.6765740   3.2581931  )
        44        Li     tau(  44) = (   0.4999001   0.7903649   3.0534340  )

   Crystallographic axes

     site n.     atom                  positions (cryst. coord.)
         1        Li     tau(   1) = ( -0.0448410  0.8203847  0.3782611  )
         2        Li     tau(   2) = (  0.3294010  0.3182959  0.6116204  )
         3        Li     tau(   3) = (  0.1434527  0.5741123  0.5796072  )
         4        Li     tau(   4) = (  0.4525859  0.8105779  0.5564438  )
         5        Li     tau(   5) = (  0.2748168  0.0998407  0.5336605  )
         6        Li     tau(   6) = (  0.0915055  0.3660021  0.5173480  )
         7        Li     tau(   7) = (  0.4075542  0.6300197  0.4963081  )
         8        Li     tau(   8) = (  0.2263958  0.9056602  0.4741025  )
         9        Li     tau(   9) = (  0.0495889  0.1978771  0.4488856  )
        10        Li     tau(  10) = (  0.3633548  0.4529491  0.4311588  )
        11        Li     tau(  11) = (  0.1708866  0.6831477  0.4173336  )
        12        Li     tau(  12) = (  0.0457362  0.1834149  0.5688415  )
        13        Li     tau(  13) = (  0.3595025  0.4384891  0.5511146  )
        14        Li     tau(  14) = (  0.1826952  0.7307043  0.5258977  )
        15        Li     tau(  15) = (  0.5015362  1.0063412  0.5036922  )
[...]
     atom    7 type  1   force =     0.00033890   -0.02257091   -0.40511647
     atom    8 type  1   force =     0.00024450    0.05744059   -3.07956978
     atom    9 type  1   force =    -0.00072387   -0.04155718   -6.12295142
     atom   10 type  1   force =     0.00032723   -0.11966376   -8.20195432
     atom   11 type  1   force =    -0.00023238   -0.04997600   -9.61154404
     atom   12 type  1   force =    -0.00032776    0.11966679    8.20195791
     atom   13 type  1   force =     0.00072439    0.04154947    6.12295360
     atom   14 type  1   force =    -0.00024355   -0.05743612    3.07956206
     atom   15 type  1   force =    -0.00033970    0.02257793    0.40512395
     atom   16 type  1   force =     0.00075189   -0.00061797   -2.08934766
     atom   17 type  1   force =    -0.00057235   -0.05898938   -3.95311665
     atom   18 type  1   force =    -0.00008725    0.08079705   -6.67188556
     atom   19 type  1   force =     0.00031046    0.13747035   -9.33098173
     atom   20 type  1   force =    -0.00016023   -0.05791506  -11.55157925
     atom   21 type  1   force =    -0.00007689   -0.04697992   11.89952015
     atom   22 type  1   force =     0.00023362    0.04997267    9.61153203
     atom   23 type  1   force =     0.00007665    0.04697836  -11.89951955
     atom   24 type  1   force =     0.00016050    0.05792064   11.55157719
     atom   25 type  1   force =    -0.00030988   -0.13747241    9.33098077
     atom   26 type  1   force =     0.00008626   -0.08079307    6.67189343
     atom   27 type  1   force =     0.00057231    0.05898315    3.95312731
     atom   28 type  1   force =    -0.00075190    0.00061538    2.08933556
     atom   29 type  1   force =     0.00033903   -0.02257109   -0.40511682
     atom   30 type  1   force =     0.00024426    0.05744058   -3.07956967
     atom   31 type  1   force =    -0.00072425   -0.04155744   -6.12295202
     atom   32 type  1   force =     0.00032722   -0.11966352   -8.20195288
     atom   33 type  1   force =    -0.00023268   -0.04997610   -9.61154296
     atom   34 type  1   force =    -0.00032786    0.11966675    8.20195856
     atom   35 type  1   force =     0.00072430    0.04154952    6.12295315
     atom   36 type  1   force =    -0.00024357   -0.05743611    3.07956199
     atom   37 type  1   force =    -0.00033968    0.02257790    0.40512439
     atom   38 type  1   force =     0.00075173   -0.00061790   -2.08934635
     atom   39 type  1   force =    -0.00057246   -0.05898941   -3.95311559
     atom   40 type  1   force =    -0.00008709    0.08079691   -6.67188541
     atom   41 type  1   force =     0.00030987    0.13747023   -9.33098122
     atom   42 type  1   force =    -0.00016055   -0.05791528  -11.55157943
     atom   43 type  1   force =    -0.00007731   -0.04697997   11.89952024
     atom   44 type  1   force =     0.00023328    0.04997227    9.61153367
     The local contribution  to forces
     atom    1 type  1   force =    -0.00006990   -0.04405817   11.91904806
     atom    2 type  1   force =    -0.00019031   -0.05583441  -11.63510359
     atom    3 type  1   force =     0.00040161    0.15360628   -9.47614905
     atom    4 type  1   force =    -0.00005215    0.08692108   -6.72464059
     atom    5 type  1   force =    -0.00060292   -0.06403342   -4.00199234
     atom    6 type  1   force =     0.00089528   -0.00017427   -2.11301096
     atom    7 type  1   force =    -0.00044096    0.02639771    0.41226652
     atom    8 type  1   force =    -0.00027192   -0.06160343    3.10750129
     atom    9 type  1   force =     0.00084680    0.04481407    6.18254244
     atom   10 type  1   force =    -0.00048065    0.12075745    8.31817082
     atom   11 type  1   force =     0.00024558    0.06446114    9.74906029
     atom   12 type  1   force =     0.00048125   -0.12076076   -8.31817564
     atom   13 type  1   force =    -0.00084731   -0.04480665   -6.18254658
     atom   14 type  1   force =     0.00027097    0.06159866   -3.10749485
     atom   15 type  1   force =     0.00044174   -0.02640424   -0.41227506
     atom   16 type  1   force =    -0.00089512    0.00017732    2.11302219
     atom   17 type  1   force =     0.00060273    0.06403929    4.00198099
     atom   18 type  1   force =     0.00005298   -0.08692547    6.72463108
     atom   19 type  1   force =    -0.00040244   -0.15360350    9.47614923
     atom   20 type  1   force =     0.00018968    0.05582847   11.63510491
     atom   21 type  1   force =     0.00007000    0.04405999  -11.91904756
     atom   22 type  1   force =    -0.00024688   -0.06445741   -9.74904882
     atom   23 type  1   force =    -0.00006973   -0.04405824   11.91904792
     atom   24 type  1   force =    -0.00018994   -0.05583437  -11.63510378
     atom   25 type  1   force =     0.00040183    0.15360613   -9.47614952
     atom   26 type  1   force =    -0.00005197    0.08692118   -6.72464035
     atom   27 type  1   force =    -0.00060273   -0.06403352   -4.00199334
     atom   28 type  1   force =     0.00089509   -0.00017410   -2.11301141
     atom   29 type  1   force =    -0.00044110    0.02639788    0.41226686
     atom   30 type  1   force =    -0.00027167   -0.06160342    3.10750118
     atom   31 type  1   force =     0.00084719    0.04481434    6.18254305
     atom   32 type  1   force =    -0.00048065    0.12075719    8.31816931
     atom   33 type  1   force =     0.00024588    0.06446124    9.74905916
     atom   34 type  1   force =     0.00048135   -0.12076073   -8.31817634
     atom   35 type  1   force =    -0.00084721   -0.04480669   -6.18254612
     atom   36 type  1   force =     0.00027099    0.06159865   -3.10749480
     atom   37 type  1   force =     0.00044172   -0.02640420   -0.41227550
     atom   38 type  1   force =    -0.00089496    0.00017724    2.11302086
     atom   39 type  1   force =     0.00060286    0.06403933    4.00197992
     atom   40 type  1   force =     0.00005281   -0.08692532    6.72463091
     atom   41 type  1   force =    -0.00040180   -0.15360335    9.47614867
     atom   42 type  1   force =     0.00019001    0.05582871   11.63510504
     atom   43 type  1   force =     0.00007045    0.04406003  -11.91904769
     atom   44 type  1   force =    -0.00024651   -0.06445697   -9.74905055
     The core correction contribution to forces
     atom    1 type  1   force =     0.00000000    0.00000000    0.00000000
     atom    2 type  1   force =     0.00000000    0.00000000    0.00000000
     atom    3 type  1   force =     0.00000000    0.00000000    0.00000000
     atom    4 type  1   force =     0.00000000    0.00000000    0.00000000
     atom    5 type  1   force =     0.00000000    0.00000000    0.00000000
     atom    6 type  1   force =     0.00000000    0.00000000    0.00000000
     atom    7 type  1   force =     0.00000000    0.00000000    0.00000000
     atom    8 type  1   force =     0.00000000    0.00000000    0.00000000
     atom    9 type  1   force =     0.00000000    0.00000000    0.00000000
     atom   10 type  1   force =     0.00000000    0.00000000    0.00000000
     atom   11 type  1   force =     0.00000000    0.00000000    0.00000000
     atom   12 type  1   force =     0.00000000    0.00000000    0.00000000
     atom   13 type  1   force =     0.00000000    0.00000000    0.00000000
     atom   14 type  1   force =     0.00000000    0.00000000    0.00000000
     atom   15 type  1   force =     0.00000000    0.00000000    0.00000000
     atom   16 type  1   force =     0.00000000    0.00000000    0.00000000
     atom   17 type  1   force =     0.00000000    0.00000000    0.00000000
     atom   18 type  1   force =     0.00000000    0.00000000    0.00000000
     atom   19 type  1   force =     0.00000000    0.00000000    0.00000000
     atom   20 type  1   force =     0.00000000    0.00000000    0.00000000
     atom   21 type  1   force =     0.00000000    0.00000000    0.00000000
     atom   22 type  1   force =     0.00000000    0.00000000    0.00000000
     atom   23 type  1   force =     0.00000000    0.00000000    0.00000000
     atom   24 type  1   force =     0.00000000    0.00000000    0.00000000
     atom   25 type  1   force =     0.00000000    0.00000000    0.00000000
     atom   26 type  1   force =     0.00000000    0.00000000    0.00000000
     atom   27 type  1   force =     0.00000000    0.00000000    0.00000000
     atom   28 type  1   force =     0.00000000    0.00000000    0.00000000
     atom   29 type  1   force =     0.00000000    0.00000000    0.00000000
     atom   30 type  1   force =     0.00000000    0.00000000    0.00000000
     atom   31 type  1   force =     0.00000000    0.00000000    0.00000000
     atom   32 type  1   force =     0.00000000    0.00000000    0.00000000
     atom   33 type  1   force =     0.00000000    0.00000000    0.00000000
     atom   34 type  1   force =     0.00000000    0.00000000    0.00000000
     atom   35 type  1   force =     0.00000000    0.00000000    0.00000000
     atom   36 type  1   force =     0.00000000    0.00000000    0.00000000
     atom   37 type  1   force =     0.00000000    0.00000000    0.00000000
     atom   38 type  1   force =     0.00000000    0.00000000    0.00000000
     atom   39 type  1   force =     0.00000000    0.00000000    0.00000000
     atom   40 type  1   force =     0.00000000    0.00000000    0.00000000
     atom   41 type  1   force =     0.00000000    0.00000000    0.00000000
     atom   42 type  1   force =     0.00000000    0.00000000    0.00000000
     atom   43 type  1   force =     0.00000000    0.00000000    0.00000000
     atom   44 type  1   force =     0.00000000    0.00000000    0.00000000
     The Hubbard contrib.    to forces
     atom    1 type  1   force =     0.00000000    0.00000000    0.00000000
     atom    2 type  1   force =     0.00000000    0.00000000    0.00000000
     atom    3 type  1   force =     0.00000000    0.00000000    0.00000000
     atom    4 type  1   force =     0.00000000    0.00000000    0.00000000
     atom    5 type  1   force =     0.00000000    0.00000000    0.00000000
     atom    6 type  1   force =     0.00000000    0.00000000    0.00000000
     atom    7 type  1   force =     0.00000000    0.00000000    0.00000000
     atom    8 type  1   force =     0.00000000    0.00000000    0.00000000
     atom    9 type  1   force =     0.00000000    0.00000000    0.00000000
     atom   10 type  1   force =     0.00000000    0.00000000    0.00000000
     atom   11 type  1   force =     0.00000000    0.00000000    0.00000000
     atom   12 type  1   force =     0.00000000    0.00000000    0.00000000
     atom   13 type  1   force =     0.00000000    0.00000000    0.00000000
     atom   14 type  1   force =     0.00000000    0.00000000    0.00000000
     atom   15 type  1   force =     0.00000000    0.00000000    0.00000000
     atom   16 type  1   force =     0.00000000    0.00000000    0.00000000
     atom   17 type  1   force =     0.00000000    0.00000000    0.00000000
     atom   18 type  1   force =     0.00000000    0.00000000    0.00000000
     atom   19 type  1   force =     0.00000000    0.00000000    0.00000000
     atom   20 type  1   force =     0.00000000    0.00000000    0.00000000
     atom   21 type  1   force =     0.00000000    0.00000000    0.00000000
     atom   22 type  1   force =     0.00000000    0.00000000    0.00000000
     atom   23 type  1   force =     0.00000000    0.00000000    0.00000000
     atom   24 type  1   force =     0.00000000    0.00000000    0.00000000
     atom   25 type  1   force =     0.00000000    0.00000000    0.00000000
     atom   26 type  1   force =     0.00000000    0.00000000    0.00000000
     atom   27 type  1   force =     0.00000000    0.00000000    0.00000000
     atom   28 type  1   force =     0.00000000    0.00000000    0.00000000
     atom   29 type  1   force =     0.00000000    0.00000000    0.00000000
     atom   30 type  1   force =     0.00000000    0.00000000    0.00000000
     atom   31 type  1   force =     0.00000000    0.00000000    0.00000000
     atom   32 type  1   force =     0.00000000    0.00000000    0.00000000
     atom   33 type  1   force =     0.00000000    0.00000000    0.00000000
     atom   34 type  1   force =     0.00000000    0.00000000    0.00000000
     atom   35 type  1   force =     0.00000000    0.00000000    0.00000000
     atom   36 type  1   force =     0.00000000    0.00000000    0.00000000
     atom   37 type  1   force =     0.00000000    0.00000000    0.00000000
     atom   38 type  1   force =     0.00000000    0.00000000    0.00000000
     atom   39 type  1   force =     0.00000000    0.00000000    0.00000000
     atom   40 type  1   force =     0.00000000    0.00000000    0.00000000
     atom   41 type  1   force =     0.00000000    0.00000000    0.00000000
     atom   42 type  1   force =     0.00000000    0.00000000    0.00000000
     atom   43 type  1   force =     0.00000000    0.00000000    0.00000000
     atom   44 type  1   force =     0.00000000    0.00000000    0.00000000
     The SCF correction term to forces
     atom    1 type  1   force =    -0.00000000   -0.00000000   -0.00000003
     atom    2 type  1   force =     0.00000000   -0.00000001    0.00000001
     atom    3 type  1   force =     0.00000000   -0.00000001    0.00000002
     atom    4 type  1   force =    -0.00000000    0.00000000    0.00000000
     atom    5 type  1   force =    -0.00000000   -0.00000001    0.00000002
     atom    6 type  1   force =     0.00000000    0.00000000    0.00000002
     atom    7 type  1   force =    -0.00000000    0.00000002   -0.00000000
     atom    8 type  1   force =     0.00000000   -0.00000001    0.00000001
     atom    9 type  1   force =    -0.00000000    0.00000001   -0.00000001
     atom   10 type  1   force =    -0.00000000    0.00000001   -0.00000002
     atom   11 type  1   force =     0.00000001   -0.00000001   -0.00000000
     atom   12 type  1   force =     0.00000000   -0.00000000    0.00000002
     atom   13 type  1   force =    -0.00000000   -0.00000000    0.00000001
     atom   14 type  1   force =     0.00000000    0.00000001   -0.00000000
     atom   15 type  1   force =     0.00000000   -0.00000002    0.00000000
     atom   16 type  1   force =    -0.00000000   -0.00000000   -0.00000002
     atom   17 type  1   force =     0.00000000    0.00000001   -0.00000001
     atom   18 type  1   force =    -0.00000000   -0.00000000   -0.00000000
     atom   19 type  1   force =     0.00000000    0.00000001   -0.00000002
     atom   20 type  1   force =     0.00000000    0.00000001   -0.00000001
     atom   21 type  1   force =    -0.00000000    0.00000001    0.00000002
     atom   22 type  1   force =    -0.00000000    0.00000001    0.00000000
     atom   23 type  1   force =    -0.00000000   -0.00000000   -0.00000003
     atom   24 type  1   force =     0.00000000   -0.00000001    0.00000001
     atom   25 type  1   force =    -0.00000000   -0.00000001    0.00000002
     atom   26 type  1   force =     0.00000000    0.00000000    0.00000000
     atom   27 type  1   force =    -0.00000000   -0.00000001    0.00000001
     atom   28 type  1   force =     0.00000000    0.00000000    0.00000002
     atom   29 type  1   force =    -0.00000000    0.00000002   -0.00000000
     atom   30 type  1   force =     0.00000000   -0.00000001    0.00000001
     atom   31 type  1   force =    -0.00000000    0.00000001   -0.00000001
     atom   32 type  1   force =    -0.00000000    0.00000000   -0.00000002
     atom   33 type  1   force =     0.00000000   -0.00000001   -0.00000000
     atom   34 type  1   force =     0.00000000   -0.00000000    0.00000002
     atom   35 type  1   force =    -0.00000000   -0.00000000    0.00000002
     atom   36 type  1   force =    -0.00000000    0.00000001   -0.00000000
     atom   37 type  1   force =     0.00000000   -0.00000002    0.00000000
     atom   38 type  1   force =    -0.00000000   -0.00000000   -0.00000002
     atom   39 type  1   force =     0.00000000    0.00000001   -0.00000001
     atom   40 type  1   force =    -0.00000000   -0.00000000   -0.00000000
     atom   41 type  1   force =    -0.00000000    0.00000001   -0.00000002
     atom   42 type  1   force =     0.00000001    0.00000001   -0.00000001
     atom   43 type  1   force =     0.00000000    0.00000001    0.00000002
     atom   44 type  1   force =    -0.00000000    0.00000001    0.00000001

     Total force =     0.001205     Total SCF correction =     0.000000

     Writing all to output data dir ./Li/Lithium.save/ :
     XML data file

     General routines

     Parallel routines

     PAW routines

     Environ routines

   This run was terminated on:   6:23:53  12Jan2025

   JOB DONE.