     Program PWSCF v.7.4 starts on 24Jan2025 at  1:57:13

     Reading input from espresso.pwi
Warning: card &CELL ignored
Warning: card    PRESS_CONV_THR   = 0.1 ignored
Warning: card    CELL_DOFREE      = 'ALL' ignored
Warning: card / ignored
Warning: card &FCP ignored
Warning: card / ignored
Warning: card &RISM ignored
Warning: card / ignored

     Current dimensions of program PWSCF are:
     Max number of different atomic species (ntypx) = 10
     Max number of k-points (npk) =  40000
     Max angular momentum in pseudopotentials (lmaxx) =  4

     IMPORTANT: XC functional enforced from input :
     Exchange-correlation= PBE
                           (   1   4   3   4   0   0   0)
     Any further DFT definition will be discarded
     Please, verify this is what you really want

     Reading input from environ.in:
     * using ionic solvent mode
     * setting boundary derivatives method to SSCS default
     * setting electrolyte-boundary derivatives method to SSCS default

Environ Warning (1001): card EOF ignored

     Found identity + (  0.5000 -0.0000  0.0000) symmetry
     This is a supercell, fractional translations are disabled

     K-points division:     npool     =       2
     R & G space division:  proc/nbgrp/npool/nimage =     192
     Subspace diagonalization in iterative solution of the eigenvalue problem:
     a serial algorithm will be used

     Using Slab Decomposition

     bravais-lattice index     =            8
     lattice parameter (alat)  =      12.9830  a.u.
     unit-cell volume          =   16814.9378 (a.u.)^3
     number of atoms/cell      =           20
     number of atomic types    =            1
     number of electrons       =        60.00
     number of Kohn-Sham states=           45
     kinetic-energy cutoff     =      80.0000  Ry
     charge density cutoff     =     800.0000  Ry
     scf convergence threshold =      1.0E-06
     mixing beta               =       0.2000
     number of iterations used =            8  local-TF  mixing
     energy convergence thresh.=      1.0E-05
     force convergence thresh. =      3.9E-04
     Exchange-correlation= PBE
                           (   1   4   3   4   0   0   0)
     nstep                     =          999

                                  Environ Setup Summary

          O. Andreussi, I. Dabo and N. Marzari, J. Chem. Phys. 136, 064102 (2012)
          F. Nattino, M. Truscott, N. Marzari, and O. Andreussi, J. Chem. Phys. 150, 041722 (2019)

     in publications or presentations arising from this work.

     Parameters

     compensation onset threshold      =               0.1000E+00
     static permittivity               =                    89.90
     surface tension in input (dyn/cm) =                    37.30
     surface tension in internal units =               0.4792E-04

     Solvent Boundary

     solvent mode                      =                    ionic
     derivatives method                =                   lowmem
     electrolyte derivatives method    =                   lowmem
     numerical core for derivatives    =                      fft
     switching function adopted        =                     SCCS
     density limit for vacuum region   =               0.5000E-02
     density limit for bulk solvent    =               0.1000E-03
     soft-sphere radius mode           =                    bondi
     soft-sphere softness              =                     0.50
     alpha                             =                     1.32

     Electrostatic Setup

     electrostatic problem to solve    =                    modpb
     numerical solver adopted          =                   newton
     type of auxiliary density adopted =                     none
     numerical core for poisson        =                      fft
     adopting a nested solver scheme
     inner solver                      =                       cg
     inner core                        =                      fft
     type of pbc corrections           =                parabolic
     numerical core for corrections    =                      1da

     >>>>> Grand-Canonical SCF is activated <<<<<
     Initial Total Charge  =     0.000000 e
     Target Fermi Energy   =    -1.654000 eV
     Thr. of Fermi Energy  =     0.001000 eV
     Wave-shift of Kerker  =     0.400000 bohr^-1
     Wave-shift of Hartree =     1.500000 bohr^-1
     Mixing Rate of Fermi  =     0.050000

     celldm(1)=  12.983009  celldm(2)=   1.118034  celldm(3)=   6.872491
     celldm(4)=   0.000000  celldm(5)=   0.000000  celldm(6)=   0.000000

     crystal axes: (cart. coord. in units of alat)
               a(1) = (   1.000000   0.000000   0.000000 )
               a(2) = (   0.000000   1.118034   0.000000 )
               a(3) = (   0.000000   0.000000   6.872491 )

     reciprocal axes: (cart. coord. in units 2 pi/alat)
               b(1) = (  1.000000  0.000000  0.000000 )
               b(2) = (  0.000000  0.894427  0.000000 )
               b(3) = (  0.000000  0.000000  0.145508 )

     PseudoPot. # 1 for Li read from file:
     /work/e89/e89/ba3g18/Repos/Pseudopotentials/Pslibrary/Li.pbe-sl-kjpaw_psl.1.0.0.UPF
     MD5 check sum: 3f4d2cafebb47c6c3aa8ed472e6f074d
     Pseudo is Projector augmented-wave, Zval =  3.0
     Generated using 'atomic' code by A. Dal Corso  v.7.4
     Shape of augmentation charge: PSQ
     Using radial grid of 1017 points,  4 beta functions with:
                l(1) =   0
                l(2) =   0
                l(3) =   1
                l(4) =   1
     Q(r) pseudized with 0 coefficients

     atomic species   valence    mass     pseudopotential
     Li                3.00     6.94000     Li( 1.00)

      2 Sym. Ops. (no inversion) found

                                    s                        frac. trans.

      isym =  1     identity

 cryst.   s( 1) = (     1          0          0      )
                  (     0          1          0      )
                  (     0          0          1      )

 cart.    s( 1) = (  1.0000000  0.0000000  0.0000000 )
                  (  0.0000000  1.0000000  0.0000000 )
                  (  0.0000000  0.0000000  1.0000000 )

      isym =  2     inv. 180 deg rotation - cart. axis [1,0,0]

 cryst.   s( 2) = (    -1          0          0      )
                  (     0          1          0      )
                  (     0          0          1      )

 cart.    s( 2) = ( -1.0000000  0.0000000  0.0000000 )
                  (  0.0000000  1.0000000  0.0000000 )
                  (  0.0000000  0.0000000  1.0000000 )

     point group C_s (m)
     there are  2 classes
     the character table:

       E     s
A'     1.00  1.00
A''    1.00 -1.00

     the symmetry operations in each class and the name of the first element:

     E        1
          identity
     s        2
          inv. 180 deg rotation - cart. axis [1,0,0]

   Cartesian axes

     site n.     atom                  positions (alat units)
         1        Li     tau(   1) = (  -0.0000000   0.4459480   3.7562735  )
         2        Li     tau(   2) = (  -0.0000000   0.9011179   3.4657145  )
         3        Li     tau(   3) = (  -0.0000000   0.2215109   3.2738878  )
         4        Li     tau(   4) = (  -0.0000000   0.6422931   3.0581967  )
         5        Li     tau(   5) = (  -0.0000000   0.0347282   3.9385922  )
         6        Li     tau(   6) = (   0.2500017   0.5524521   3.4068461  )
         7        Li     tau(   7) = (   0.2499986   1.0074069   3.1163450  )
         8        Li     tau(   8) = (   0.2499992   0.3004606   2.9340906  )
         9        Li     tau(   9) = (   0.2500008   0.8110204   3.8143270  )
        10        Li     tau(  10) = (   0.2499991   0.1142137   3.5981746  )
        11        Li     tau(  11) = (   0.5000000   0.4459476   3.7562737  )
        12        Li     tau(  12) = (   0.5000000   0.9011174   3.4657126  )
        13        Li     tau(  13) = (   0.5000000   0.2215133   3.2738846  )
        14        Li     tau(  14) = (   0.5000000   0.6422925   3.0581945  )
        15        Li     tau(  15) = (   0.5000000   0.0347285   3.9385978  )
        16        Li     tau(  16) = (   0.7499982   0.5524521   3.4068461  )
        17        Li     tau(  17) = (   0.7500013   1.0074069   3.1163450  )
        18        Li     tau(  18) = (   0.7500007   0.3004606   2.9340906  )
        19        Li     tau(  19) = (   0.7499992   0.8110204   3.8143270  )
        20        Li     tau(  20) = (   0.7500009   0.1142137   3.5981746  )

   Crystallographic axes

     site n.     atom                  positions (cryst. coord.)
         1        Li     tau(   1) = ( -0.0000000  0.3988680  0.5465665  )
         2        Li     tau(   2) = ( -0.0000000  0.8059843  0.5042880  )
         3        Li     tau(   3) = ( -0.0000000  0.1981254  0.4763757  )
         4        Li     tau(   4) = ( -0.0000000  0.5744844  0.4449910  )
         5        Li     tau(   5) = ( -0.0000000  0.0310618  0.5730953  )
         6        Li     tau(   6) = (  0.2500017  0.4941282  0.4957222  )
         7        Li     tau(   7) = (  0.2499986  0.9010522  0.4534520  )
         8        Li     tau(   8) = (  0.2499992  0.2687401  0.4269326  )
         9        Li     tau(   9) = (  0.2500008  0.7253987  0.5550137  )
        10        Li     tau(  10) = (  0.2499991  0.1021559  0.5235619  )
        11        Li     tau(  11) = (  0.5000000  0.3988677  0.5465665  )
        12        Li     tau(  12) = (  0.5000000  0.8059839  0.5042877  )
        13        Li     tau(  13) = (  0.5000000  0.1981275  0.4763752  )
        14        Li     tau(  14) = (  0.5000000  0.5744839  0.4449907  )
        15        Li     tau(  15) = (  0.5000000  0.0310621  0.5730961  )
        16        Li     tau(  16) = (  0.7499982  0.4941282  0.4957222  )
        17        Li     tau(  17) = (  0.7500013  0.9010522  0.4534520  )
        18        Li     tau(  18) = (  0.7500007  0.2687401  0.4269326  )
        19        Li     tau(  19) = (  0.7499992  0.7253987  0.5550137  )
        20        Li     tau(  20) = (  0.7500009  0.1021559  0.5235619  )

     number of k points=    30  Marzari-Vanderbilt smearing, width (Ry)=  0.0100
                       cart. coord. in units 2pi/alat
        k(    1) = (   0.0000000   0.0000000   0.0000000), wk =   0.0222222
        k(    2) = (   0.0000000   0.0993808   0.0000000), wk =   0.0444444
        k(    3) = (   0.0000000   0.1987616   0.0000000), wk =   0.0444444
        k(    4) = (   0.0000000   0.2981424   0.0000000), wk =   0.0444444
        k(    5) = (   0.0000000   0.3975232   0.0000000), wk =   0.0444444
        k(    6) = (   0.1000000   0.0000000   0.0000000), wk =   0.0444444
        k(    7) = (   0.1000000   0.0993808   0.0000000), wk =   0.0888889
        k(    8) = (   0.1000000   0.1987616   0.0000000), wk =   0.0888889
        k(    9) = (   0.1000000   0.2981424   0.0000000), wk =   0.0888889
        k(   10) = (   0.1000000   0.3975232   0.0000000), wk =   0.0888889
        k(   11) = (   0.2000000   0.0000000   0.0000000), wk =   0.0444444
        k(   12) = (   0.2000000   0.0993808   0.0000000), wk =   0.0888889
[...]
    -0.0656  -0.0656   0.1424   0.1424   0.4673

     occupation numbers
     1.0000   1.0000   1.0000   1.0000   1.0000   1.0000   1.0000   1.0000
     1.0000   1.0000   1.0000   1.0000   1.0000   1.0000   1.0000   1.0000
     1.0000   1.0000   1.0000   1.0000   1.0000   1.0000   1.0000   1.0000
     1.0000   1.0000   1.0000   1.0000   1.0000   1.0000   1.0001   1.0001
     0.0154   0.0154   0.0000   0.0000   0.0000   0.0000   0.0000   0.0000
     0.0000   0.0000   0.0000   0.0000   0.0000

     the Fermi energy is    -1.6548 ev

!    total energy              =    -300.85242592 Ry
     total all-electron energy =      -300.852588 Ry
     estimated scf accuracy    <       0.00000003 Ry

!    total charge of GC-SCF    =      -4.89830199 e
     smearing contrib. (-TS)   =       0.00037119 Ry
     internal energy E=F+TS    =    -300.85279711 Ry

     The total energy is F=E-TS. E is the sum of the following terms:
     one-electron contribution =   -2963.92044328 Ry
     hartree contribution      =    1452.15447880 Ry
     xc contribution           =     -72.97751276 Ry
     ewald contribution        =    1152.38777360 Ry
     one-center paw contrib.   =       1.76522960 Ry
      -> PAW hartree energy AE =       7.41357624 Ry
      -> PAW hartree energy PS =      -7.19060108 Ry
      -> PAW xc energy AE      =      -3.48177401 Ry
      -> PAW xc energy PS      =       3.34713425 Ry
      -> total E_H with PAW    =    1452.37745396 Ry
      -> total E_XC with PAW   =     -73.11215252 Ry
     pot.stat. contrib. (-muN) =       0.59547069 Ry
     electrostatic embedding   =      -5.09956403 Ry
     cavitation energy         =       0.02127567 Ry
     electrolyte free energy   =      -0.08694906 Ry
     correction to one-el term =     134.30744365 Ry

     WARNING: you are using the parabolic pbc correction;
              the potential shift above must be added to
              band and Fermi energies.

     convergence has been achieved in   4 iterations
     The dielectric solvent contribution to forces
     atom    1 type  1   force =     0.00000000   -0.00802951   -0.11002206
     atom    2 type  1   force =     0.00000000    0.00352909   -0.00058739
     atom    3 type  1   force =     0.00000000    0.00885954    0.03738214
     atom    4 type  1   force =     0.00000000   -0.03465259    0.09573056
     atom    5 type  1   force =    -0.00000000   -0.01618839   -0.03723640
     atom    6 type  1   force =     0.00000010   -0.00353352    0.00054076
     atom    7 type  1   force =    -0.00000036    0.00802315    0.10998372
     atom    8 type  1   force =    -0.00000036    0.01625500    0.03723135
     atom    9 type  1   force =     0.00000027    0.03463944   -0.09580388
     atom   10 type  1   force =    -0.00000001   -0.00882721   -0.03735347
     atom   11 type  1   force =    -0.00000000   -0.00802980   -0.11002198
     atom   12 type  1   force =    -0.00000000    0.00352887   -0.00058680
     atom   13 type  1   force =    -0.00000000    0.00885998    0.03738302
     atom   14 type  1   force =    -0.00000000   -0.03465287    0.09572986
     atom   15 type  1   force =    -0.00000000   -0.01618828   -0.03723220
     atom   16 type  1   force =    -0.00000010   -0.00353352    0.00054076
     atom   17 type  1   force =     0.00000035    0.00802315    0.10998372
     atom   18 type  1   force =     0.00000036    0.01625500    0.03723136
     atom   19 type  1   force =    -0.00000028    0.03463944   -0.09580388
     atom   20 type  1   force =     0.00000001   -0.00882721   -0.03735347

     Forces acting on atoms (cartesian axes, Ry/au):

     atom    1 type  1   force =     0.00000000   -0.00019988   -0.00008668
     atom    2 type  1   force =     0.00000000    0.00037840    0.00010494
     atom    3 type  1   force =     0.00000000    0.00015149    0.00037806
     atom    4 type  1   force =     0.00000000    0.00011893    0.00031972
     atom    5 type  1   force =     0.00000000   -0.00024256   -0.00007851
     atom    6 type  1   force =    -0.00000013   -0.00038207   -0.00010247
     atom    7 type  1   force =     0.00000066    0.00021153    0.00009204
     atom    8 type  1   force =     0.00000001    0.00028155   -0.00002910
     atom    9 type  1   force =     0.00000003   -0.00010149   -0.00032549
     atom   10 type  1   force =     0.00000129   -0.00021583   -0.00027237
     atom   11 type  1   force =     0.00000000   -0.00020001   -0.00008669
     atom   12 type  1   force =     0.00000000    0.00037885    0.00010482
     atom   13 type  1   force =     0.00000000    0.00015028    0.00037970
     atom   14 type  1   force =     0.00000000    0.00011935    0.00031973
     atom   15 type  1   force =     0.00000000   -0.00024225   -0.00008033
     atom   16 type  1   force =     0.00000013   -0.00038207   -0.00010247
     atom   17 type  1   force =    -0.00000066    0.00021153    0.00009204
     atom   18 type  1   force =    -0.00000001    0.00028155   -0.00002910
     atom   19 type  1   force =    -0.00000003   -0.00010149   -0.00032549
     atom   20 type  1   force =    -0.00000129   -0.00021583   -0.00027237
     The non-local contrib.  to forces
     atom    1 type  1   force =     0.00000000    0.00026839    0.02930495
     atom    2 type  1   force =     0.00000000   -0.00043743   -0.00075304
     atom    3 type  1   force =     0.00000000   -0.00215823    0.00481413
     atom    4 type  1   force =     0.00000000    0.01064388   -0.02393500
     atom    5 type  1   force =     0.00000000    0.00896716    0.03295496
     atom    6 type  1   force =    -0.00000089    0.00047988    0.00076696
     atom    7 type  1   force =     0.00000088   -0.00031764   -0.02929396
     atom    8 type  1   force =    -0.00000007   -0.00898514   -0.03304432
     atom    9 type  1   force =     0.00000010   -0.01056973    0.02390141
     atom   10 type  1   force =     0.00000165    0.00212221   -0.00478598
     atom   11 type  1   force =     0.00000000    0.00026712    0.02930493
     atom   12 type  1   force =     0.00000000   -0.00043548   -0.00075304
     atom   13 type  1   force =     0.00000000   -0.00215909    0.00481411
     atom   14 type  1   force =     0.00000000    0.01064508   -0.02393608
     atom   15 type  1   force =     0.00000000    0.00896728    0.03295435
     atom   16 type  1   force =     0.00000089    0.00047988    0.00076696
     atom   17 type  1   force =    -0.00000088   -0.00031764   -0.02929396
     atom   18 type  1   force =     0.00000007   -0.00898514   -0.03304432
     atom   19 type  1   force =    -0.00000010   -0.01056973    0.02390141
     atom   20 type  1   force =    -0.00000165    0.00212221   -0.00478598
     The ionic contribution  to forces
     atom    1 type  1   force =    -0.00000002    0.10701583    5.75128298
     atom    2 type  1   force =    -0.00000002   -0.06525153    0.43464444
     atom    3 type  1   force =    -0.00000003   -0.08168104   -2.81150870
     atom    4 type  1   force =    -0.00000002    0.31695651   -6.50134874
     atom    5 type  1   force =    -0.00000001    0.15408194    8.05750940
     atom    6 type  1   force =    -0.00001478    0.06609190   -0.43172273
     atom    7 type  1   force =     0.00001129   -0.10803028   -5.74899532
     atom    8 type  1   force =    -0.00000132   -0.15377085   -8.05861865
     atom    9 type  1   force =    -0.00000031   -0.31524653    6.50102228
     atom   10 type  1   force =     0.00002563    0.07983172    2.80777053
     atom   11 type  1   force =     0.00000001    0.10700119    5.75129063
     atom   12 type  1   force =     0.00000001   -0.06522006    0.43461519
     atom   13 type  1   force =     0.00000002   -0.08171278   -2.81154923
     atom   14 type  1   force =     0.00000001    0.31697144   -6.50138853
     atom   15 type  1   force =     0.00000001    0.15408657    8.05754035
     atom   16 type  1   force =     0.00001479    0.06609190   -0.43172275
     atom   17 type  1   force =    -0.00001129   -0.10803028   -5.74899529
     atom   18 type  1   force =     0.00000132   -0.15377085   -8.05861860
     atom   19 type  1   force =     0.00000032   -0.31524653    6.50102225
     atom   20 type  1   force =    -0.00002563    0.07983173    2.80777047
     The local contribution  to forces
     atom    1 type  1   force =     0.00000349   -0.09943883   -5.67062138
     atom    2 type  1   force =     0.00000349    0.06251516   -0.43314284
     atom    3 type  1   force =     0.00000290    0.07515662    2.76966115
     atom    4 type  1   force =     0.00000407   -0.29286743    6.42980269
     atom    5 type  1   force =     0.00000408   -0.14717703   -8.05320407
     atom    6 type  1   force =     0.00001960   -0.06339518    0.43031652
     atom    7 type  1   force =    -0.00000671    0.10051769    5.66838645
     atom    8 type  1   force =     0.00000652    0.14685241    8.05429066
     atom    9 type  1   force =     0.00000397    0.29111994   -6.42936633
     atom   10 type  1   force =    -0.00002160   -0.07337068   -2.76581893
     atom   11 type  1   force =     0.00000442   -0.09942269   -5.67062907
     atom   12 type  1   force =     0.00000441    0.06248322   -0.43311401
     atom   13 type  1   force =     0.00000557    0.07518766    2.76970166
     atom   14 type  1   force =     0.00000500   -0.29288282    6.42984409
     atom   15 type  1   force =     0.00000384   -0.14718194   -8.05324061
     atom   16 type  1   force =    -0.00001020   -0.06339460    0.43031713
     atom   17 type  1   force =     0.00001554    0.10051769    5.66838585
     atom   18 type  1   force =     0.00000290    0.14685300    8.05428947
     atom   19 type  1   force =     0.00000427    0.29111993   -6.42936572
     atom   20 type  1   force =     0.00003041   -0.07337068   -2.76581771
     The core correction contribution to forces
     atom    1 type  1   force =     0.00000000    0.00000000    0.00000000
     atom    2 type  1   force =     0.00000000    0.00000000    0.00000000
     atom    3 type  1   force =     0.00000000    0.00000000    0.00000000
     atom    4 type  1   force =     0.00000000    0.00000000    0.00000000
     atom    5 type  1   force =     0.00000000    0.00000000    0.00000000
     atom    6 type  1   force =     0.00000000    0.00000000    0.00000000
     atom    7 type  1   force =     0.00000000    0.00000000    0.00000000
     atom    8 type  1   force =     0.00000000    0.00000000    0.00000000
     atom    9 type  1   force =     0.00000000    0.00000000    0.00000000
     atom   10 type  1   force =     0.00000000    0.00000000    0.00000000
     atom   11 type  1   force =     0.00000000    0.00000000    0.00000000
     atom   12 type  1   force =     0.00000000    0.00000000    0.00000000
     atom   13 type  1   force =     0.00000000    0.00000000    0.00000000
     atom   14 type  1   force =     0.00000000    0.00000000    0.00000000
     atom   15 type  1   force =     0.00000000    0.00000000    0.00000000
     atom   16 type  1   force =     0.00000000    0.00000000    0.00000000
     atom   17 type  1   force =     0.00000000    0.00000000    0.00000000
     atom   18 type  1   force =     0.00000000    0.00000000    0.00000000
     atom   19 type  1   force =     0.00000000    0.00000000    0.00000000
     atom   20 type  1   force =     0.00000000    0.00000000    0.00000000
     The Hubbard contrib.    to forces
     atom    1 type  1   force =     0.00000000    0.00000000    0.00000000
     atom    2 type  1   force =     0.00000000    0.00000000    0.00000000
     atom    3 type  1   force =     0.00000000    0.00000000    0.00000000
     atom    4 type  1   force =     0.00000000    0.00000000    0.00000000
     atom    5 type  1   force =     0.00000000    0.00000000    0.00000000
     atom    6 type  1   force =     0.00000000    0.00000000    0.00000000
     atom    7 type  1   force =     0.00000000    0.00000000    0.00000000
     atom    8 type  1   force =     0.00000000    0.00000000    0.00000000
     atom    9 type  1   force =     0.00000000    0.00000000    0.00000000
     atom   10 type  1   force =     0.00000000    0.00000000    0.00000000
     atom   11 type  1   force =     0.00000000    0.00000000    0.00000000
     atom   12 type  1   force =     0.00000000    0.00000000    0.00000000
     atom   13 type  1   force =     0.00000000    0.00000000    0.00000000
     atom   14 type  1   force =     0.00000000    0.00000000    0.00000000
     atom   15 type  1   force =     0.00000000    0.00000000    0.00000000
     atom   16 type  1   force =     0.00000000    0.00000000    0.00000000
     atom   17 type  1   force =     0.00000000    0.00000000    0.00000000
     atom   18 type  1   force =     0.00000000    0.00000000    0.00000000
     atom   19 type  1   force =     0.00000000    0.00000000    0.00000000
     atom   20 type  1   force =     0.00000000    0.00000000    0.00000000
     The SCF correction term to forces
     atom    1 type  1   force =    -0.00000000   -0.00001586   -0.00003766
     atom    2 type  1   force =    -0.00000000    0.00002302   -0.00006272
     atom    3 type  1   force =    -0.00000000   -0.00002548    0.00002286
     atom    4 type  1   force =    -0.00000000    0.00003846    0.00006371
     atom    5 type  1   force =    -0.00000000    0.00007367   -0.00010890
     atom    6 type  1   force =     0.00000055   -0.00002555   -0.00001077
     atom    7 type  1   force =    -0.00000003    0.00001852    0.00000494
     atom    8 type  1   force =    -0.00000004   -0.00007026    0.00010594
     atom    9 type  1   force =     0.00000012   -0.00004470   -0.00008576
     atom   10 type  1   force =     0.00000003    0.00002804   -0.00009159
     atom   11 type  1   force =    -0.00000000   -0.00001592   -0.00003770
     atom   12 type  1   force =    -0.00000000    0.00002221   -0.00006301
     atom   13 type  1   force =    -0.00000000   -0.00002559    0.00002365
     atom   14 type  1   force =     0.00000000    0.00003843    0.00006391
     atom   15 type  1   force =    -0.00000000    0.00007402   -0.00010872
     atom   16 type  1   force =    -0.00000055   -0.00002555   -0.00001077
     atom   17 type  1   force =     0.00000003    0.00001852    0.00000494
     atom   18 type  1   force =     0.00000004   -0.00007026    0.00010594
     atom   19 type  1   force =    -0.00000012   -0.00004470   -0.00008576
     atom   20 type  1   force =    -0.00000003    0.00002804   -0.00009159

     Total force =     0.001467     Total SCF correction =     0.000363
     SCF correction compared to forces is large: reduce conv_thr to get better values
     Energy error            =      5.3E-06 Ry
     Gradient error          =      3.8E-04 Ry/Bohr

     bfgs converged in   2 scf cycles and   1 bfgs steps
     (criteria: energy <  1.0E-05 Ry, force <  3.9E-04 Ry/Bohr)

     End of BFGS Geometry Optimization

     Final energy             =    -300.8524259232 Ry

     File ./Li/Lithium.bfgs deleted, as requested
Begin final coordinates

ATOMIC_POSITIONS (angstrom)
Li              -0.0000000600        3.0636769008       25.8067360689
Li              -0.0000000600        6.1911637958       23.8106299484
Li              -0.0000000500        1.5219449862       22.4927918218
Li              -0.0000000700        4.4127972401       21.0109916978
Li              -0.0000000700        0.2384962679       27.0592684522
Li               1.7175907854        3.7953141409       23.4060056211
Li               1.7175695759        6.9213324545       21.4103027292
Li               1.7175727960        2.0643775574       20.1581556520
Li               1.7175832364        5.5719291216       26.2053919470
Li               1.7175714440        0.7845533746       24.7204828965
Li               3.4351561700        3.0636735066       25.8067382650
Li               3.4351561700        6.1911593675       23.8106174509
Li               3.4351561500        1.5219618277       22.4927684866
Li               3.4351561600        4.4127939965       21.0109763125
Li               3.4351561800        0.2384985259       27.0593056668
Li               5.1527215446        3.7953141309       23.4060056111
Li               5.1527427641        6.9213324545       21.4103027392
Li               5.1527395340        2.0643775474       20.1581556719
Li               5.1527291136        5.5719291216       26.2053919370
Li               5.1527408960        0.7845533746       24.7204828765
End final coordinates

     Writing all to output data dir ./Li/Lithium.save/ :
     XML data file

     General routines

     Parallel routines

     PAW routines

     Environ routines

   This run was terminated on:   2: 9:48  24Jan2025

   JOB DONE.