     Program PWSCF v.7.4 starts on  2Jan2025 at 10:45:25

     Reading input from espresso.pwi
Warning: card &CELL ignored
Warning: card    PRESS_CONV_THR   = 0.1 ignored
Warning: card    CELL_DOFREE      = 'ALL' ignored
Warning: card / ignored
Warning: card &FCP ignored
Warning: card / ignored
Warning: card &RISM ignored
Warning: card / ignored

     Current dimensions of program PWSCF are:
     Max number of different atomic species (ntypx) = 10
     Max number of k-points (npk) =  40000
     Max angular momentum in pseudopotentials (lmaxx) =  4

     IMPORTANT: XC functional enforced from input :
     Exchange-correlation= PBE
                           (   1   4   3   4   0   0   0)
     Any further DFT definition will be discarded
     Please, verify this is what you really want

     Reading input from environ.in:
     * using ionic solvent mode
     * setting boundary derivatives method to SSCS default
     * setting electrolyte-boundary derivatives method to SSCS default

Environ Warning (1001): card EOF ignored

     Found identity + (  0.0000  0.5000  0.0000) symmetry
     This is a supercell, fractional translations are disabled

     R & G space division:  proc/nbgrp/npool/nimage =     256
     Subspace diagonalization in iterative solution of the eigenvalue problem:
     a serial algorithm will be used

     Using Slab Decomposition

     bravais-lattice index     =            6
     lattice parameter (alat)  =      12.9830  a.u.
     unit-cell volume          =   16640.2915 (a.u.)^3
     number of atoms/cell      =           32
     number of atomic types    =            1
     number of electrons       =        96.00
     number of Kohn-Sham states=           72
     kinetic-energy cutoff     =      80.0000  Ry
     charge density cutoff     =     800.0000  Ry
     scf convergence threshold =      1.0E-06
     mixing beta               =       0.2000
     number of iterations used =            8  local-TF  mixing
     energy convergence thresh.=      1.0E-05
     force convergence thresh. =      3.9E-04
     Exchange-correlation= PBE
                           (   1   4   3   4   0   0   0)
     nstep                     =          999

                                  Environ Setup Summary

          O. Andreussi, I. Dabo and N. Marzari, J. Chem. Phys. 136, 064102 (2012)
          F. Nattino, M. Truscott, N. Marzari, and O. Andreussi, J. Chem. Phys. 150, 041722 (2019)

     in publications or presentations arising from this work.

     Parameters

     compensation onset threshold      =               0.1000E+00
     static permittivity               =                    89.90
     surface tension in input (dyn/cm) =                    37.30
     surface tension in internal units =               0.4792E-04

     Solvent Boundary

     solvent mode                      =                    ionic
     derivatives method                =                   lowmem
     electrolyte derivatives method    =                   lowmem
     numerical core for derivatives    =                      fft
     switching function adopted        =                     SCCS
     density limit for vacuum region   =               0.5000E-02
     density limit for bulk solvent    =               0.1000E-03
     soft-sphere radius mode           =                    bondi
     soft-sphere softness              =                     0.50
     alpha                             =                     1.32

     Electrostatic Setup

     electrostatic problem to solve    =                    modpb
     numerical solver adopted          =                   newton
     type of auxiliary density adopted =                     none
     numerical core for poisson        =                      fft
     adopting a nested solver scheme
     inner solver                      =                       cg
     inner core                        =                      fft
     type of pbc corrections           =                parabolic
     numerical core for corrections    =                      1da

     >>>>> Grand-Canonical SCF is activated <<<<<
     Initial Total Charge  =     0.000000 e
     Target Fermi Energy   =    -2.904000 eV
     Thr. of Fermi Energy  =     0.001000 eV
     Wave-shift of Kerker  =     0.400000 bohr^-1
     Wave-shift of Hartree =     1.500000 bohr^-1
     Mixing Rate of Fermi  =     0.050000

     celldm(1)=  12.983009  celldm(2)=   0.000000  celldm(3)=   7.603873
     celldm(4)=   0.000000  celldm(5)=   0.000000  celldm(6)=   0.000000

     crystal axes: (cart. coord. in units of alat)
               a(1) = (   1.000000   0.000000   0.000000 )
               a(2) = (   0.000000   1.000000   0.000000 )
               a(3) = (   0.000000   0.000000   7.603873 )

     reciprocal axes: (cart. coord. in units 2 pi/alat)
               b(1) = (  1.000000  0.000000  0.000000 )
               b(2) = (  0.000000  1.000000  0.000000 )
               b(3) = (  0.000000  0.000000  0.131512 )

     PseudoPot. # 1 for Li read from file:
     /work/e89/e89/ba3g18/Repos/Pseudopotentials/Pslibrary/Li.pbe-sl-kjpaw_psl.1.0.0.UPF
     MD5 check sum: 3f4d2cafebb47c6c3aa8ed472e6f074d
     Pseudo is Projector augmented-wave, Zval =  3.0
     Generated using 'atomic' code by A. Dal Corso  v.7.4
     Shape of augmentation charge: PSQ
     Using radial grid of 1017 points,  4 beta functions with:
                l(1) =   0
                l(2) =   0
                l(3) =   1
                l(4) =   1
     Q(r) pseudized with 0 coefficients

     atomic species   valence    mass     pseudopotential
     Li                3.00     6.94000     Li( 1.00)

      8 Sym. Ops. (no inversion) found

                                    s                        frac. trans.

      isym =  1     identity

 cryst.   s( 1) = (     1          0          0      )
                  (     0          1          0      )
                  (     0          0          1      )

 cart.    s( 1) = (  1.0000000  0.0000000  0.0000000 )
                  (  0.0000000  1.0000000  0.0000000 )
                  (  0.0000000  0.0000000  1.0000000 )

      isym =  2     180 deg rotation - cart. axis [0,0,1]

[...]

      isym =  4      90 deg rotation - cart. axis [0,0,1]

[...]

      isym =  5     inv. 180 deg rotation - cart. axis [0,1,0]

[...]

      isym =  8     inv. 180 deg rotation - cart. axis [1,-1,0]

 cryst.   s( 8) = (     0          1          0      )
                  (     1          0          0      )
                  (     0          0          1      )

 cart.    s( 8) = (  0.0000000  1.0000000  0.0000000 )
                  (  1.0000000  0.0000000  0.0000000 )
                  (  0.0000000  0.0000000  1.0000000 )

     point group C_4v (4mm)
     there are  5 classes
     the character table:

       E     2C4   C2    2s_v  2s_d
A_1    1.00  1.00  1.00  1.00  1.00
A_2    1.00  1.00  1.00 -1.00 -1.00
B_1    1.00 -1.00  1.00  1.00 -1.00
B_2    1.00 -1.00  1.00 -1.00  1.00
E      2.00  0.00 -2.00  0.00  0.00

     the symmetry operations in each class and the name of the first element:

     E        1
          identity
     2C4      3    4
           90 deg rotation - cart. axis [0,0,-1]
     C2       2
          180 deg rotation - cart. axis [0,0,1]
     2s_v     5    6
          inv. 180 deg rotation - cart. axis [0,1,0]
     2s_d     7    8
          inv. 180 deg rotation - cart. axis [1,1,0]

   Cartesian axes

     site n.     atom                  positions (alat units)
         1        Li     tau(   1) = (  -0.0000000  -0.0000000   3.1708639  )
         2        Li     tau(   2) = (   0.2500000   0.2500000   2.8924023  )
         3        Li     tau(   3) = (  -0.0000000  -0.0000000   3.6712293  )
         4        Li     tau(   4) = (   0.2500012   0.2500012   3.4180341  )
         5        Li     tau(   5) = (  -0.0000000  -0.0000000   4.1858625  )
         6        Li     tau(   6) = (   0.2499994   0.2499994   3.9326724  )
         7        Li     tau(   7) = (  -0.0000000  -0.0000000   4.7114672  )
         8        Li     tau(   8) = (   0.2499973   0.2499973   4.4330282  )
         9        Li     tau(   9) = (  -0.0000000   0.5000000   3.1708714  )
        10        Li     tau(  10) = (   0.2500000   0.7500000   2.8924023  )
        11        Li     tau(  11) = (  -0.0000000   0.5000000   3.6712252  )
        12        Li     tau(  12) = (   0.2500012   0.7499987   3.4180341  )
        13        Li     tau(  13) = (  -0.0000000   0.5000000   4.1858663  )
        14        Li     tau(  14) = (   0.2499994   0.7500005   3.9326724  )
        15        Li     tau(  15) = (  -0.0000000   0.5000000   4.7114663  )
        16        Li     tau(  16) = (   0.2499973   0.7500027   4.4330282  )
        17        Li     tau(  17) = (   0.5000000  -0.0000000   3.1708714  )
        18        Li     tau(  18) = (   0.7500000   0.2500000   2.8924023  )
        19        Li     tau(  19) = (   0.5000000  -0.0000000   3.6712252  )
        20        Li     tau(  20) = (   0.7499987   0.2500012   3.4180341  )
        21        Li     tau(  21) = (   0.5000000  -0.0000000   4.1858663  )
        22        Li     tau(  22) = (   0.7500005   0.2499994   3.9326724  )
        23        Li     tau(  23) = (   0.5000000  -0.0000000   4.7114663  )
        24        Li     tau(  24) = (   0.7500027   0.2499973   4.4330282  )
        25        Li     tau(  25) = (   0.5000000   0.5000000   3.1708714  )
        26        Li     tau(  26) = (   0.7500000   0.7500000   2.8924023  )
        27        Li     tau(  27) = (   0.5000000   0.5000000   3.6712149  )
        28        Li     tau(  28) = (   0.7499987   0.7499987   3.4180341  )
        29        Li     tau(  29) = (   0.5000000   0.5000000   4.1858724  )
        30        Li     tau(  30) = (   0.7500005   0.7500005   3.9326724  )
        31        Li     tau(  31) = (   0.5000000   0.5000000   4.7114655  )
        32        Li     tau(  32) = (   0.7500027   0.7500027   4.4330282  )

   Crystallographic axes

     site n.     atom                  positions (cryst. coord.)
         1        Li     tau(   1) = ( -0.0000000 -0.0000000  0.4170064  )
         2        Li     tau(   2) = (  0.2500000  0.2500000  0.3803854  )
         3        Li     tau(   3) = ( -0.0000000 -0.0000000  0.4828104  )
         4        Li     tau(   4) = (  0.2500012  0.2500012  0.4495123  )
         5        Li     tau(   5) = ( -0.0000000 -0.0000000  0.5504908  )
         6        Li     tau(   6) = (  0.2499994  0.2499994  0.5171933  )
         7        Li     tau(   7) = ( -0.0000000 -0.0000000  0.6196141  )
         8        Li     tau(   8) = (  0.2499973  0.2499973  0.5829961  )
         9        Li     tau(   9) = ( -0.0000000  0.5000000  0.4170074  )
        10        Li     tau(  10) = (  0.2500000  0.7500000  0.3803854  )
        11        Li     tau(  11) = ( -0.0000000  0.5000000  0.4828099  )
        12        Li     tau(  12) = (  0.2500012  0.7499987  0.4495123  )
        13        Li     tau(  13) = ( -0.0000000  0.5000000  0.5504913  )
        14        Li     tau(  14) = (  0.2499994  0.7500005  0.5171933  )
[...]
     atom   16 type  1   force =     0.00000032   -0.00000032    0.00123593
     atom   17 type  1   force =     0.00000000    0.00000000   -0.00126178
     atom   18 type  1   force =     0.00000080   -0.00000080   -0.07627764
     atom   19 type  1   force =     0.00000000    0.00000000    0.00131429
     atom   20 type  1   force =    -0.00000217    0.00000217   -0.00115942
     atom   21 type  1   force =     0.00000000    0.00000000    0.00117561
     atom   22 type  1   force =     0.00000055   -0.00000055   -0.00127082
     atom   23 type  1   force =     0.00000000    0.00000000    0.07624009
     atom   24 type  1   force =    -0.00000032    0.00000032    0.00123593
     atom   25 type  1   force =     0.00000000    0.00000000   -0.00125869
     atom   26 type  1   force =     0.00000080    0.00000080   -0.07627764
     atom   27 type  1   force =     0.00000000    0.00000000    0.00131169
     atom   28 type  1   force =    -0.00000217   -0.00000217   -0.00115942
     atom   29 type  1   force =     0.00000000    0.00000000    0.00117662
     atom   30 type  1   force =     0.00000055    0.00000055   -0.00127082
     atom   31 type  1   force =     0.00000000    0.00000000    0.07623977
     atom   32 type  1   force =    -0.00000032   -0.00000032    0.00123593
     The ionic contribution  to forces
     atom    1 type  1   force =    -0.00000001   -0.00000001   -9.84466968
     atom    2 type  1   force =    -0.00000640   -0.00000640  -13.48971275
     atom    3 type  1   force =    -0.00000001   -0.00000001   -1.98016715
     atom    4 type  1   force =     0.00004359    0.00004359   -5.92989125
     atom    5 type  1   force =    -0.00000000   -0.00000000    5.93006560
     atom    6 type  1   force =    -0.00000873   -0.00000873    1.98111655
     atom    7 type  1   force =    -0.00000001   -0.00000001   13.48877013
     atom    8 type  1   force =     0.00000798    0.00000798    9.84442516
     atom    9 type  1   force =    -0.00000001    0.00000001   -9.84462718
     atom   10 type  1   force =    -0.00000640    0.00000641  -13.48971273
     atom   11 type  1   force =    -0.00000001    0.00000001   -1.98016780
     atom   12 type  1   force =     0.00004359   -0.00004358   -5.92989126
     atom   13 type  1   force =    -0.00000000   -0.00000000    5.93011451
     atom   14 type  1   force =    -0.00000873    0.00000873    1.98111654
     atom   15 type  1   force =    -0.00000001    0.00000001   13.48875782
     atom   16 type  1   force =     0.00000798   -0.00000797    9.84442519
     atom   17 type  1   force =     0.00000001   -0.00000001   -9.84462718
     atom   18 type  1   force =     0.00000641   -0.00000640  -13.48971273
     atom   19 type  1   force =     0.00000001   -0.00000001   -1.98016780
     atom   20 type  1   force =    -0.00004358    0.00004359   -5.92989126
     atom   21 type  1   force =    -0.00000000   -0.00000000    5.93011451
     atom   22 type  1   force =     0.00000873   -0.00000873    1.98111654
     atom   23 type  1   force =     0.00000001   -0.00000001   13.48875782
     atom   24 type  1   force =    -0.00000797    0.00000798    9.84442519
     atom   25 type  1   force =     0.00000001    0.00000001   -9.84462450
     atom   26 type  1   force =     0.00000641    0.00000641  -13.48971271
     atom   27 type  1   force =     0.00000001    0.00000001   -1.98020020
     atom   28 type  1   force =    -0.00004358   -0.00004358   -5.92989127
     atom   29 type  1   force =    -0.00000000   -0.00000000    5.93017670
     atom   30 type  1   force =     0.00000873    0.00000873    1.98111653
     atom   31 type  1   force =     0.00000001    0.00000001   13.48874347
     atom   32 type  1   force =    -0.00000797   -0.00000797    9.84442520
     The local contribution  to forces
     atom    1 type  1   force =     0.00000407    0.00000407    9.86055075
     atom    2 type  1   force =     0.00001187    0.00001187   13.58457981
     atom    3 type  1   force =     0.00000407    0.00000407    1.98183181
     atom    4 type  1   force =    -0.00003980   -0.00003980    5.94018333
     atom    5 type  1   force =     0.00000407    0.00000407   -5.94037699
     atom    6 type  1   force =     0.00001328    0.00001328   -1.98282410
     atom    7 type  1   force =     0.00000350    0.00000350  -13.58361687
     atom    8 type  1   force =    -0.00000375   -0.00000375   -9.86029961
     atom    9 type  1   force =     0.00000407    0.00000499    9.86050635
     atom   10 type  1   force =     0.00001187   -0.00000244   13.58457862
     atom   11 type  1   force =     0.00000407    0.00000441    1.98183267
     atom   12 type  1   force =    -0.00003980    0.00004919    5.94018394
     atom   13 type  1   force =     0.00000407    0.00000383   -5.94042746
     atom   14 type  1   force =     0.00001328   -0.00000446   -1.98282410
     atom   15 type  1   force =     0.00000350    0.00000442  -13.58360456
     atom   16 type  1   force =    -0.00000375    0.00001257   -9.86030021
     atom   17 type  1   force =     0.00000499    0.00000407    9.86050635
     atom   18 type  1   force =    -0.00000244    0.00001187   13.58457862
     atom   19 type  1   force =     0.00000441    0.00000407    1.98183267
     atom   20 type  1   force =     0.00004919   -0.00003980    5.94018394
     atom   21 type  1   force =     0.00000383    0.00000407   -5.94042746
     atom   22 type  1   force =    -0.00000446    0.00001328   -1.98282410
     atom   23 type  1   force =     0.00000442    0.00000350  -13.58360456
     atom   24 type  1   force =     0.00001257   -0.00000375   -9.86030021
     atom   25 type  1   force =     0.00000499    0.00000499    9.86050295
     atom   26 type  1   force =    -0.00000244   -0.00000244   13.58457802
     atom   27 type  1   force =     0.00000441    0.00000441    1.98186602
     atom   28 type  1   force =     0.00004919    0.00004919    5.94018394
     atom   29 type  1   force =     0.00000383    0.00000383   -5.94049099
     atom   30 type  1   force =    -0.00000446   -0.00000446   -1.98282410
     atom   31 type  1   force =     0.00000442    0.00000442  -13.58359029
     atom   32 type  1   force =     0.00001257    0.00001257   -9.86030021
     The core correction contribution to forces
     atom    1 type  1   force =     0.00000000    0.00000000    0.00000000
     atom    2 type  1   force =     0.00000000    0.00000000    0.00000000
     atom    3 type  1   force =     0.00000000    0.00000000    0.00000000
     atom    4 type  1   force =     0.00000000    0.00000000    0.00000000
     atom    5 type  1   force =     0.00000000    0.00000000    0.00000000
     atom    6 type  1   force =     0.00000000    0.00000000    0.00000000
     atom    7 type  1   force =     0.00000000    0.00000000    0.00000000
     atom    8 type  1   force =     0.00000000    0.00000000    0.00000000
     atom    9 type  1   force =     0.00000000    0.00000000    0.00000000
     atom   10 type  1   force =     0.00000000    0.00000000    0.00000000
     atom   11 type  1   force =     0.00000000    0.00000000    0.00000000
     atom   12 type  1   force =     0.00000000    0.00000000    0.00000000
     atom   13 type  1   force =     0.00000000    0.00000000    0.00000000
     atom   14 type  1   force =     0.00000000    0.00000000    0.00000000
     atom   15 type  1   force =     0.00000000    0.00000000    0.00000000
     atom   16 type  1   force =     0.00000000    0.00000000    0.00000000
     atom   17 type  1   force =     0.00000000    0.00000000    0.00000000
     atom   18 type  1   force =     0.00000000    0.00000000    0.00000000
     atom   19 type  1   force =     0.00000000    0.00000000    0.00000000
     atom   20 type  1   force =     0.00000000    0.00000000    0.00000000
     atom   21 type  1   force =     0.00000000    0.00000000    0.00000000
     atom   22 type  1   force =     0.00000000    0.00000000    0.00000000
     atom   23 type  1   force =     0.00000000    0.00000000    0.00000000
     atom   24 type  1   force =     0.00000000    0.00000000    0.00000000
     atom   25 type  1   force =     0.00000000    0.00000000    0.00000000
     atom   26 type  1   force =     0.00000000    0.00000000    0.00000000
     atom   27 type  1   force =     0.00000000    0.00000000    0.00000000
     atom   28 type  1   force =     0.00000000    0.00000000    0.00000000
     atom   29 type  1   force =     0.00000000    0.00000000    0.00000000
     atom   30 type  1   force =     0.00000000    0.00000000    0.00000000
     atom   31 type  1   force =     0.00000000    0.00000000    0.00000000
     atom   32 type  1   force =     0.00000000    0.00000000    0.00000000
     The Hubbard contrib.    to forces
     atom    1 type  1   force =     0.00000000    0.00000000    0.00000000
     atom    2 type  1   force =     0.00000000    0.00000000    0.00000000
     atom    3 type  1   force =     0.00000000    0.00000000    0.00000000
     atom    4 type  1   force =     0.00000000    0.00000000    0.00000000
     atom    5 type  1   force =     0.00000000    0.00000000    0.00000000
     atom    6 type  1   force =     0.00000000    0.00000000    0.00000000
     atom    7 type  1   force =     0.00000000    0.00000000    0.00000000
     atom    8 type  1   force =     0.00000000    0.00000000    0.00000000
     atom    9 type  1   force =     0.00000000    0.00000000    0.00000000
     atom   10 type  1   force =     0.00000000    0.00000000    0.00000000
     atom   11 type  1   force =     0.00000000    0.00000000    0.00000000
     atom   12 type  1   force =     0.00000000    0.00000000    0.00000000
     atom   13 type  1   force =     0.00000000    0.00000000    0.00000000
     atom   14 type  1   force =     0.00000000    0.00000000    0.00000000
     atom   15 type  1   force =     0.00000000    0.00000000    0.00000000
     atom   16 type  1   force =     0.00000000    0.00000000    0.00000000
     atom   17 type  1   force =     0.00000000    0.00000000    0.00000000
     atom   18 type  1   force =     0.00000000    0.00000000    0.00000000
     atom   19 type  1   force =     0.00000000    0.00000000    0.00000000
     atom   20 type  1   force =     0.00000000    0.00000000    0.00000000
     atom   21 type  1   force =     0.00000000    0.00000000    0.00000000
     atom   22 type  1   force =     0.00000000    0.00000000    0.00000000
     atom   23 type  1   force =     0.00000000    0.00000000    0.00000000
     atom   24 type  1   force =     0.00000000    0.00000000    0.00000000
     atom   25 type  1   force =     0.00000000    0.00000000    0.00000000
     atom   26 type  1   force =     0.00000000    0.00000000    0.00000000
     atom   27 type  1   force =     0.00000000    0.00000000    0.00000000
     atom   28 type  1   force =     0.00000000    0.00000000    0.00000000
     atom   29 type  1   force =     0.00000000    0.00000000    0.00000000
     atom   30 type  1   force =     0.00000000    0.00000000    0.00000000
     atom   31 type  1   force =     0.00000000    0.00000000    0.00000000
     atom   32 type  1   force =     0.00000000    0.00000000    0.00000000
     The SCF correction term to forces
     atom    1 type  1   force =    -0.00000000   -0.00000000    0.00000295
     atom    2 type  1   force =     0.00000000    0.00000000    0.00000367
     atom    3 type  1   force =     0.00000000    0.00000000    0.00000012
     atom    4 type  1   force =    -0.00000001   -0.00000001    0.00000157
     atom    5 type  1   force =     0.00000000    0.00000000   -0.00000056
     atom    6 type  1   force =    -0.00000002   -0.00000002    0.00000011
     atom    7 type  1   force =    -0.00000000    0.00000000   -0.00000371
     atom    8 type  1   force =    -0.00000001   -0.00000001   -0.00000203
     atom    9 type  1   force =     0.00000000    0.00000000    0.00000296
     atom   10 type  1   force =     0.00000000   -0.00000000    0.00000367
     atom   11 type  1   force =    -0.00000000    0.00000000    0.00000010
     atom   12 type  1   force =    -0.00000001    0.00000001    0.00000157
     atom   13 type  1   force =    -0.00000000    0.00000000   -0.00000054
     atom   14 type  1   force =    -0.00000002    0.00000002    0.00000011
     atom   15 type  1   force =    -0.00000000   -0.00000000   -0.00000373
     atom   16 type  1   force =    -0.00000001    0.00000001   -0.00000203
     atom   17 type  1   force =    -0.00000000   -0.00000000    0.00000296
     atom   18 type  1   force =    -0.00000000    0.00000000    0.00000367
     atom   19 type  1   force =     0.00000000   -0.00000000    0.00000010
     atom   20 type  1   force =     0.00000001   -0.00000001    0.00000157
     atom   21 type  1   force =     0.00000000   -0.00000000   -0.00000054
     atom   22 type  1   force =     0.00000002   -0.00000002    0.00000011
     atom   23 type  1   force =    -0.00000000    0.00000000   -0.00000373
     atom   24 type  1   force =     0.00000001   -0.00000001   -0.00000203
     atom   25 type  1   force =     0.00000000    0.00000000    0.00000298
     atom   26 type  1   force =    -0.00000000   -0.00000000    0.00000367
     atom   27 type  1   force =     0.00000000    0.00000000    0.00000008
     atom   28 type  1   force =     0.00000001    0.00000001    0.00000157
     atom   29 type  1   force =    -0.00000000   -0.00000000   -0.00000053
     atom   30 type  1   force =     0.00000002    0.00000002    0.00000011
     atom   31 type  1   force =     0.00000000   -0.00000000   -0.00000373
     atom   32 type  1   force =     0.00000001    0.00000001   -0.00000203

     Total force =     0.000063     Total SCF correction =     0.000013
     SCF correction compared to forces is large: reduce conv_thr to get better values
     Energy error            =      3.0E-06 Ry
     Gradient error          =      2.2E-05 Ry/Bohr

     bfgs converged in  35 scf cycles and  34 bfgs steps
     (criteria: energy <  1.0E-05 Ry, force <  3.9E-04 Ry/Bohr)

     End of BFGS Geometry Optimization

     Final energy             =    -481.2142435182 Ry

     File ./Li/Lithium.bfgs deleted, as requested
Begin final coordinates

ATOMIC_POSITIONS (angstrom)
Li              -0.0000000700       -0.0000000700       21.8310291746
Li               1.7175826128        1.7175826128       19.9926347763
Li              -0.0000000700       -0.0000000700       25.2386021715
Li               1.7175579609        1.7175579609       23.5240326783
Li              -0.0000000700       -0.0000000700       28.7162843806
Li               1.7175873543        1.7175873543       27.0010586797
Li              -0.0000000600       -0.0000000600       32.2499552142
Li               1.7175675362        1.7175675362       30.4108008716
Li              -0.0000000700        3.4351561600       21.8310295885
Li               1.7175826128        5.1527297172       19.9926347963
Li              -0.0000000700        3.4351561700       25.2386276715
Li               1.7175579609        5.1527543691       23.5240326683
Li              -0.0000000700        3.4351561800       28.7162982859
Li               1.7175873543        5.1527249857       27.0010586797
Li              -0.0000000600        3.4351561700       32.2499517429
Li               1.7175675362        5.1527448038       30.4108008816
Li               3.4351561600       -0.0000000700       21.8310295885
Li               5.1527297172        1.7175826128       19.9926347963
Li               3.4351561700       -0.0000000700       25.2386276715
Li               5.1527543691        1.7175579609       23.5240326683
Li               3.4351561800       -0.0000000700       28.7162982859
Li               5.1527249857        1.7175873543       27.0010586797
Li               3.4351561700       -0.0000000600       32.2499517429
Li               5.1527448038        1.7175675362       30.4108008816
Li               3.4351561600        3.4351561600       21.8310065972
Li               5.1527297172        5.1527297172       19.9926348063
Li               3.4351561700        3.4351561700       25.2386343898
Li               5.1527543691        5.1527543691       23.5240326683
Li               3.4351561800        3.4351561800       28.7163225679
Li               5.1527249857        5.1527249857       27.0010586797
Li               3.4351561700        3.4351561700       32.2499448788
Li               5.1527448038        5.1527448038       30.4108008816
End final coordinates

     Writing all to output data dir ./Li/Lithium.save/ :
     XML data file

     General routines

     Parallel routines

     PAW routines

     Environ routines

   This run was terminated on:  14:58:17   2Jan2025

   JOB DONE.