     Program PWSCF v.7.4 starts on  2Jan2025 at 10:45:26

     Reading input from espresso.pwi
Warning: card &CELL ignored
Warning: card    PRESS_CONV_THR   = 0.1 ignored
Warning: card    CELL_DOFREE      = 'ALL' ignored
Warning: card / ignored
Warning: card &FCP ignored
Warning: card / ignored
Warning: card &RISM ignored
Warning: card / ignored

     Current dimensions of program PWSCF are:
     Max number of different atomic species (ntypx) = 10
     Max number of k-points (npk) =  40000
     Max angular momentum in pseudopotentials (lmaxx) =  4

     IMPORTANT: XC functional enforced from input :
     Exchange-correlation= PBE
                           (   1   4   3   4   0   0   0)
     Any further DFT definition will be discarded
     Please, verify this is what you really want

     Reading input from environ.in:
     * using ionic solvent mode
     * setting boundary derivatives method to SSCS default
     * setting electrolyte-boundary derivatives method to SSCS default

Environ Warning (1001): card EOF ignored

     Found identity + ( -0.5000 -0.5000 -0.0000) symmetry
     This is a supercell, fractional translations are disabled

     K-points division:     npool     =       2
     R & G space division:  proc/nbgrp/npool/nimage =     192
     Subspace diagonalization in iterative solution of the eigenvalue problem:
     a serial algorithm will be used

     Using Slab Decomposition

     bravais-lattice index     =            4
     lattice parameter (alat)  =      18.3607  a.u.
     unit-cell volume          =   28251.3786 (a.u.)^3
     number of atoms/cell      =           48
     number of atomic types    =            1
     number of electrons       =       144.00
     number of Kohn-Sham states=          108
     kinetic-energy cutoff     =      80.0000  Ry
     charge density cutoff     =     800.0000  Ry
     scf convergence threshold =      1.0E-06
     mixing beta               =       0.2000
     number of iterations used =            8  local-TF  mixing
     energy convergence thresh.=      1.0E-05
     force convergence thresh. =      3.9E-04
     Exchange-correlation= PBE
                           (   1   4   3   4   0   0   0)
     nstep                     =          999

                                  Environ Setup Summary

          O. Andreussi, I. Dabo and N. Marzari, J. Chem. Phys. 136, 064102 (2012)
          F. Nattino, M. Truscott, N. Marzari, and O. Andreussi, J. Chem. Phys. 150, 041722 (2019)

     in publications or presentations arising from this work.

     Parameters

     compensation onset threshold      =               0.1000E+00
     static permittivity               =                    89.90
     surface tension in input (dyn/cm) =                    37.30
     surface tension in internal units =               0.4792E-04

     Solvent Boundary

     solvent mode                      =                    ionic
     derivatives method                =                   lowmem
     electrolyte derivatives method    =                   lowmem
     numerical core for derivatives    =                      fft
     switching function adopted        =                     SCCS
     density limit for vacuum region   =               0.5000E-02
     density limit for bulk solvent    =               0.1000E-03
     soft-sphere radius mode           =                    bondi
     soft-sphere softness              =                     0.50
     alpha                             =                     1.32

     Electrostatic Setup

     electrostatic problem to solve    =                    modpb
     numerical solver adopted          =                   newton
     type of auxiliary density adopted =                     none
     numerical core for poisson        =                      fft
     adopting a nested solver scheme
     inner solver                      =                       cg
     inner core                        =                      fft
     type of pbc corrections           =                parabolic
     numerical core for corrections    =                      1da

     >>>>> Grand-Canonical SCF is activated <<<<<
     Initial Total Charge  =     0.000000 e
     Target Fermi Energy   =    -2.904000 eV
     Thr. of Fermi Energy  =     0.001000 eV
     Wave-shift of Kerker  =     0.400000 bohr^-1
     Wave-shift of Hartree =     1.500000 bohr^-1
     Mixing Rate of Fermi  =     0.050000

     celldm(1)=  18.360747  celldm(2)=   0.000000  celldm(3)=   5.270332
     celldm(4)=   0.000000  celldm(5)=   0.000000  celldm(6)=   0.000000

     crystal axes: (cart. coord. in units of alat)
               a(1) = (   1.000000   0.000000   0.000000 )
               a(2) = (  -0.500000   0.866025   0.000000 )
               a(3) = (   0.000000   0.000000   5.270332 )

     reciprocal axes: (cart. coord. in units 2 pi/alat)
               b(1) = (  1.000000  0.577350 -0.000000 )
               b(2) = (  0.000000  1.154701  0.000000 )
               b(3) = (  0.000000 -0.000000  0.189741 )

     PseudoPot. # 1 for Li read from file:
     /work/e89/e89/ba3g18/Repos/Pseudopotentials/Pslibrary/Li.pbe-sl-kjpaw_psl.1.0.0.UPF
     MD5 check sum: 3f4d2cafebb47c6c3aa8ed472e6f074d
     Pseudo is Projector augmented-wave, Zval =  3.0
     Generated using 'atomic' code by A. Dal Corso  v.7.4
     Shape of augmentation charge: PSQ
     Using radial grid of 1017 points,  4 beta functions with:
                l(1) =   0
                l(2) =   0
                l(3) =   1
                l(4) =   1
     Q(r) pseudized with 0 coefficients

     atomic species   valence    mass     pseudopotential
     Li                3.00     6.94000     Li( 1.00)

      2 Sym. Ops. (no inversion) found

                                    s                        frac. trans.

      isym =  1     identity

 cryst.   s( 1) = (     1          0          0      )
                  (     0          1          0      )
                  (     0          0          1      )

 cart.    s( 1) = (  1.0000000  0.0000000  0.0000000 )
                  (  0.0000000  1.0000000  0.0000000 )
                  (  0.0000000  0.0000000  1.0000000 )

      isym =  2     inv. 180 deg rotation - cart. axis [1,0,0]

 cryst.   s( 2) = (    -1          0          0      )
                  (     1          1          0      )
                  (     0          0          1      )

 cart.    s( 2) = ( -1.0000000  0.0000000  0.0000000 )
                  (  0.0000000  1.0000000  0.0000000 )
                  (  0.0000000  0.0000000  1.0000000 )

     point group C_s (m)
     there are  2 classes
     the character table:

       E     s
A'     1.00  1.00
A''    1.00 -1.00

     the symmetry operations in each class and the name of the first element:

     E        1
          identity
     s        2
          inv. 180 deg rotation - cart. axis [1,0,0]

   Cartesian axes

     site n.     atom                  positions (alat units)
         1        Li     tau(   1) = (  -0.0000000   0.0000004   2.5877252  )
         2        Li     tau(   2) = (   0.2500001   0.1443432   2.1961009  )
         3        Li     tau(   3) = (   0.5000000   0.2886790   2.3687810  )
         4        Li     tau(   4) = (   0.0000000   0.0000046   2.2774685  )
         5        Li     tau(   5) = (   0.2500001   0.1443396   2.4871698  )
         6        Li     tau(   6) = (   0.5000000   0.2886809   2.0540534  )
         7        Li     tau(   7) = (   0.0000000  -0.0000067   3.2162780  )
         8        Li     tau(   8) = (   0.2499999   0.1443350   2.7831634  )
         9        Li     tau(   9) = (   0.5000000   0.2886703   2.9928625  )
        10        Li     tau(  10) = (  -0.0000000  -0.0000042   2.9015507  )
        11        Li     tau(  11) = (   0.2500004   0.1443330   3.0742329  )
        12        Li     tau(  12) = (   0.5000000   0.2886741   2.6826060  )
        13        Li     tau(  13) = (   0.2499999   0.4330134   2.5877251  )
        14        Li     tau(  14) = (   0.5000000   0.5773550   2.1961009  )
        15        Li     tau(  15) = (   0.7500000   0.7216918   2.3687813  )
        16        Li     tau(  16) = (   0.2499997   0.4330179   2.2774688  )
        17        Li     tau(  17) = (   0.5000000   0.5773522   2.4871689  )
        18        Li     tau(  18) = (   0.7499981   0.7216945   2.0540539  )
        19        Li     tau(  19) = (   0.2499993   0.4330093   3.2162780  )
        20        Li     tau(  20) = (   0.5000000   0.5773482   2.7831629  )
        21        Li     tau(  21) = (   0.7499997   0.7216835   2.9928634  )
        22        Li     tau(  22) = (   0.2499997   0.4330093   2.9015504  )
        23        Li     tau(  23) = (   0.5000000   0.5773448   3.0742310  )
        24        Li     tau(  24) = (   0.7499999   0.7216871   2.6826066  )
        25        Li     tau(  25) = (   0.5000000  -0.0000001   2.5877245  )
        26        Li     tau(  26) = (   0.7499999   0.1443432   2.1961009  )
        27        Li     tau(  27) = (   1.0000000   0.2886787   2.3687815  )
        28        Li     tau(  28) = (   0.5000000   0.0000045   2.2774677  )
        29        Li     tau(  29) = (   0.7499999   0.1443396   2.4871698  )
        30        Li     tau(  30) = (   1.0000000   0.2886788   2.0540541  )
        31        Li     tau(  31) = (   0.5000000  -0.0000078   3.2162775  )
        32        Li     tau(  32) = (   0.7500001   0.1443350   2.7831634  )
        33        Li     tau(  33) = (   1.0000000   0.2886698   2.9928636  )
        34        Li     tau(  34) = (   0.5000000  -0.0000046   2.9015502  )
        35        Li     tau(  35) = (   0.7499996   0.1443330   3.0742329  )
        36        Li     tau(  36) = (   1.0000000   0.2886742   2.6826071  )
        37        Li     tau(  37) = (   0.7500001   0.4330134   2.5877251  )
        38        Li     tau(  38) = (   1.0000000   0.5773556   2.1960979  )
        39        Li     tau(  39) = (   1.2500000   0.7216918   2.3687813  )
        40        Li     tau(  40) = (   0.7500003   0.4330179   2.2774688  )
        41        Li     tau(  41) = (   1.0000000   0.5773520   2.4871672  )
        42        Li     tau(  42) = (   1.2500019   0.7216945   2.0540539  )
        43        Li     tau(  43) = (   0.7500007   0.4330093   3.2162780  )
        44        Li     tau(  44) = (   1.0000000   0.5773482   2.7831610  )
        45        Li     tau(  45) = (   1.2500003   0.7216835   2.9928634  )
        46        Li     tau(  46) = (   0.7500003   0.4330093   2.9015504  )
        47        Li     tau(  47) = (   1.0000000   0.5773448   3.0742296  )
        48        Li     tau(  48) = (   1.2500001   0.7216871   2.6826066  )

   Crystallographic axes

     site n.     atom                  positions (cryst. coord.)
         1        Li     tau(   1) = (  0.0000002  0.0000004  0.4909985  )
         2        Li     tau(   2) = (  0.3333367  0.1666732  0.4166912  )
         3        Li     tau(   3) = (  0.6666689  0.3333378  0.4494557  )
         4        Li     tau(   4) = (  0.0000026  0.0000053  0.4321300  )
         5        Li     tau(   5) = (  0.3333347  0.1666691  0.4719190  )
[...]
     atom   28 type  1   force =     0.00000312    0.00001385    8.59562741
     atom   29 type  1   force =    -0.00001430    0.00002563    3.43651250
     atom   30 type  1   force =     0.00000863   -0.00000595   12.55205443
     atom   31 type  1   force =     0.00000256   -0.00000064  -12.55235702
     atom   32 type  1   force =    -0.00003474    0.00002816   -3.43653519
     atom   33 type  1   force =     0.00000334    0.00003186   -8.59546144
     atom   34 type  1   force =     0.00000254    0.00001625   -6.03207301
     atom   35 type  1   force =    -0.00003215    0.00001161  -10.37892098
     atom   36 type  1   force =     0.00000392    0.00002833   -1.23462717
     atom   37 type  1   force =     0.00002943   -0.00003445    1.23466841
     atom   38 type  1   force =     0.00000276   -0.00002022   10.37909937
     atom   39 type  1   force =    -0.00003064    0.00000604    6.03154124
     atom   40 type  1   force =     0.00002212   -0.00002207    8.59564815
     atom   41 type  1   force =     0.00000335   -0.00001695    3.43662144
     atom   42 type  1   force =     0.00001252   -0.00000347   12.55202528
     atom   43 type  1   force =    -0.00000820    0.00000652  -12.55234298
     atom   44 type  1   force =     0.00000335   -0.00000800   -3.43642095
     atom   45 type  1   force =    -0.00003845   -0.00001019   -8.59544769
     atom   46 type  1   force =     0.00001194   -0.00002301   -6.03204801
     atom   47 type  1   force =     0.00000335    0.00000801  -10.37878081
     atom   48 type  1   force =    -0.00005182    0.00000311   -1.23463795
     The core correction contribution to forces
     atom    1 type  1   force =     0.00000000    0.00000000    0.00000000
     atom    2 type  1   force =     0.00000000    0.00000000    0.00000000
     atom    3 type  1   force =     0.00000000    0.00000000    0.00000000
     atom    4 type  1   force =     0.00000000    0.00000000    0.00000000
     atom    5 type  1   force =     0.00000000    0.00000000    0.00000000
     atom    6 type  1   force =     0.00000000    0.00000000    0.00000000
     atom    7 type  1   force =     0.00000000    0.00000000    0.00000000
     atom    8 type  1   force =     0.00000000    0.00000000    0.00000000
     atom    9 type  1   force =     0.00000000    0.00000000    0.00000000
     atom   10 type  1   force =     0.00000000    0.00000000    0.00000000
     atom   11 type  1   force =     0.00000000    0.00000000    0.00000000
     atom   12 type  1   force =     0.00000000    0.00000000    0.00000000
     atom   13 type  1   force =     0.00000000    0.00000000    0.00000000
     atom   14 type  1   force =     0.00000000    0.00000000    0.00000000
     atom   15 type  1   force =     0.00000000    0.00000000    0.00000000
     atom   16 type  1   force =     0.00000000    0.00000000    0.00000000
     atom   17 type  1   force =     0.00000000    0.00000000    0.00000000
     atom   18 type  1   force =     0.00000000    0.00000000    0.00000000
     atom   19 type  1   force =     0.00000000    0.00000000    0.00000000
     atom   20 type  1   force =     0.00000000    0.00000000    0.00000000
     atom   21 type  1   force =     0.00000000    0.00000000    0.00000000
     atom   22 type  1   force =     0.00000000    0.00000000    0.00000000
     atom   23 type  1   force =     0.00000000    0.00000000    0.00000000
     atom   24 type  1   force =     0.00000000    0.00000000    0.00000000
     atom   25 type  1   force =     0.00000000    0.00000000    0.00000000
     atom   26 type  1   force =     0.00000000    0.00000000    0.00000000
     atom   27 type  1   force =     0.00000000    0.00000000    0.00000000
     atom   28 type  1   force =     0.00000000    0.00000000    0.00000000
     atom   29 type  1   force =     0.00000000    0.00000000    0.00000000
     atom   30 type  1   force =     0.00000000    0.00000000    0.00000000
     atom   31 type  1   force =     0.00000000    0.00000000    0.00000000
     atom   32 type  1   force =     0.00000000    0.00000000    0.00000000
     atom   33 type  1   force =     0.00000000    0.00000000    0.00000000
     atom   34 type  1   force =     0.00000000    0.00000000    0.00000000
     atom   35 type  1   force =     0.00000000    0.00000000    0.00000000
     atom   36 type  1   force =     0.00000000    0.00000000    0.00000000
     atom   37 type  1   force =     0.00000000    0.00000000    0.00000000
     atom   38 type  1   force =     0.00000000    0.00000000    0.00000000
     atom   39 type  1   force =     0.00000000    0.00000000    0.00000000
     atom   40 type  1   force =     0.00000000    0.00000000    0.00000000
     atom   41 type  1   force =     0.00000000    0.00000000    0.00000000
     atom   42 type  1   force =     0.00000000    0.00000000    0.00000000
     atom   43 type  1   force =     0.00000000    0.00000000    0.00000000
     atom   44 type  1   force =     0.00000000    0.00000000    0.00000000
     atom   45 type  1   force =     0.00000000    0.00000000    0.00000000
     atom   46 type  1   force =     0.00000000    0.00000000    0.00000000
     atom   47 type  1   force =     0.00000000    0.00000000    0.00000000
     atom   48 type  1   force =     0.00000000    0.00000000    0.00000000
     The Hubbard contrib.    to forces
     atom    1 type  1   force =     0.00000000    0.00000000    0.00000000
     atom    2 type  1   force =     0.00000000    0.00000000    0.00000000
     atom    3 type  1   force =     0.00000000    0.00000000    0.00000000
     atom    4 type  1   force =     0.00000000    0.00000000    0.00000000
     atom    5 type  1   force =     0.00000000    0.00000000    0.00000000
     atom    6 type  1   force =     0.00000000    0.00000000    0.00000000
     atom    7 type  1   force =     0.00000000    0.00000000    0.00000000
     atom    8 type  1   force =     0.00000000    0.00000000    0.00000000
     atom    9 type  1   force =     0.00000000    0.00000000    0.00000000
     atom   10 type  1   force =     0.00000000    0.00000000    0.00000000
     atom   11 type  1   force =     0.00000000    0.00000000    0.00000000
     atom   12 type  1   force =     0.00000000    0.00000000    0.00000000
     atom   13 type  1   force =     0.00000000    0.00000000    0.00000000
     atom   14 type  1   force =     0.00000000    0.00000000    0.00000000
     atom   15 type  1   force =     0.00000000    0.00000000    0.00000000
     atom   16 type  1   force =     0.00000000    0.00000000    0.00000000
     atom   17 type  1   force =     0.00000000    0.00000000    0.00000000
     atom   18 type  1   force =     0.00000000    0.00000000    0.00000000
     atom   19 type  1   force =     0.00000000    0.00000000    0.00000000
     atom   20 type  1   force =     0.00000000    0.00000000    0.00000000
     atom   21 type  1   force =     0.00000000    0.00000000    0.00000000
     atom   22 type  1   force =     0.00000000    0.00000000    0.00000000
     atom   23 type  1   force =     0.00000000    0.00000000    0.00000000
     atom   24 type  1   force =     0.00000000    0.00000000    0.00000000
     atom   25 type  1   force =     0.00000000    0.00000000    0.00000000
     atom   26 type  1   force =     0.00000000    0.00000000    0.00000000
     atom   27 type  1   force =     0.00000000    0.00000000    0.00000000
     atom   28 type  1   force =     0.00000000    0.00000000    0.00000000
     atom   29 type  1   force =     0.00000000    0.00000000    0.00000000
     atom   30 type  1   force =     0.00000000    0.00000000    0.00000000
     atom   31 type  1   force =     0.00000000    0.00000000    0.00000000
     atom   32 type  1   force =     0.00000000    0.00000000    0.00000000
     atom   33 type  1   force =     0.00000000    0.00000000    0.00000000
     atom   34 type  1   force =     0.00000000    0.00000000    0.00000000
     atom   35 type  1   force =     0.00000000    0.00000000    0.00000000
     atom   36 type  1   force =     0.00000000    0.00000000    0.00000000
     atom   37 type  1   force =     0.00000000    0.00000000    0.00000000
     atom   38 type  1   force =     0.00000000    0.00000000    0.00000000
     atom   39 type  1   force =     0.00000000    0.00000000    0.00000000
     atom   40 type  1   force =     0.00000000    0.00000000    0.00000000
     atom   41 type  1   force =     0.00000000    0.00000000    0.00000000
     atom   42 type  1   force =     0.00000000    0.00000000    0.00000000
     atom   43 type  1   force =     0.00000000    0.00000000    0.00000000
     atom   44 type  1   force =     0.00000000    0.00000000    0.00000000
     atom   45 type  1   force =     0.00000000    0.00000000    0.00000000
     atom   46 type  1   force =     0.00000000    0.00000000    0.00000000
     atom   47 type  1   force =     0.00000000    0.00000000    0.00000000
     atom   48 type  1   force =     0.00000000    0.00000000    0.00000000
     The SCF correction term to forces
     atom    1 type  1   force =     0.00000000    0.00000003    0.00000010
     atom    2 type  1   force =     0.00000001    0.00000000   -0.00000016
     atom    3 type  1   force =     0.00000000   -0.00000002   -0.00000045
     atom    4 type  1   force =     0.00000000    0.00000001   -0.00000012
     atom    5 type  1   force =     0.00000002    0.00000001   -0.00000017
     atom    6 type  1   force =    -0.00000000   -0.00000000    0.00000024
     atom    7 type  1   force =     0.00000000    0.00000000   -0.00000032
     atom    8 type  1   force =     0.00000000    0.00000001    0.00000065
     atom    9 type  1   force =     0.00000000   -0.00000001    0.00000018
     atom   10 type  1   force =     0.00000000    0.00000002    0.00000068
     atom   11 type  1   force =    -0.00000000    0.00000000    0.00000019
     atom   12 type  1   force =     0.00000000   -0.00000002    0.00000030
     atom   13 type  1   force =    -0.00000002   -0.00000002    0.00000010
     atom   14 type  1   force =     0.00000000   -0.00000001   -0.00000018
     atom   15 type  1   force =     0.00000002    0.00000001   -0.00000046
     atom   16 type  1   force =    -0.00000001   -0.00000001   -0.00000011
     atom   17 type  1   force =     0.00000000   -0.00000001   -0.00000016
     atom   18 type  1   force =     0.00000001   -0.00000000    0.00000023
     atom   19 type  1   force =    -0.00000000   -0.00000001   -0.00000033
     atom   20 type  1   force =     0.00000000   -0.00000001    0.00000066
     atom   21 type  1   force =     0.00000001    0.00000000    0.00000019
     atom   22 type  1   force =    -0.00000001   -0.00000001    0.00000067
     atom   23 type  1   force =    -0.00000000   -0.00000000    0.00000018
     atom   24 type  1   force =     0.00000003    0.00000001    0.00000031
     atom   25 type  1   force =     0.00000000    0.00000001    0.00000010
     atom   26 type  1   force =    -0.00000001    0.00000000   -0.00000016
     atom   27 type  1   force =     0.00000000    0.00000001   -0.00000045
     atom   28 type  1   force =    -0.00000000    0.00000000   -0.00000011
     atom   29 type  1   force =    -0.00000002    0.00000001   -0.00000017
     atom   30 type  1   force =     0.00000000    0.00000001    0.00000025
     atom   31 type  1   force =    -0.00000000   -0.00000000   -0.00000032
     atom   32 type  1   force =    -0.00000000    0.00000001    0.00000065
     atom   33 type  1   force =     0.00000000    0.00000000    0.00000018
     atom   34 type  1   force =     0.00000000    0.00000000    0.00000066
     atom   35 type  1   force =     0.00000000    0.00000000    0.00000019
     atom   36 type  1   force =     0.00000000    0.00000001    0.00000030
     atom   37 type  1   force =     0.00000002   -0.00000002    0.00000010
     atom   38 type  1   force =     0.00000000    0.00000000   -0.00000017
     atom   39 type  1   force =    -0.00000002    0.00000001   -0.00000046
     atom   40 type  1   force =     0.00000001   -0.00000001   -0.00000011
     atom   41 type  1   force =    -0.00000000    0.00000000   -0.00000017
     atom   42 type  1   force =    -0.00000001   -0.00000000    0.00000023
     atom   43 type  1   force =     0.00000000   -0.00000001   -0.00000033
     atom   44 type  1   force =     0.00000000   -0.00000000    0.00000065
     atom   45 type  1   force =    -0.00000001    0.00000000    0.00000019
     atom   46 type  1   force =     0.00000001   -0.00000001    0.00000067
     atom   47 type  1   force =    -0.00000000   -0.00000000    0.00000019
     atom   48 type  1   force =    -0.00000003    0.00000001    0.00000031

     Total force =     0.000550     Total SCF correction =     0.000002
     Energy error            =      7.4E-06 Ry
     Gradient error          =      1.5E-04 Ry/Bohr

     bfgs converged in  23 scf cycles and  22 bfgs steps
     (criteria: energy <  1.0E-05 Ry, force <  3.9E-04 Ry/Bohr)

     End of BFGS Geometry Optimization

     Final energy             =    -721.7225959191 Ry

     File ./Li/Lithium.bfgs deleted, as requested
Begin final coordinates

ATOMIC_POSITIONS (angstrom)
Li              -0.0000000100        0.0000257901       25.0865827734
Li               2.4290249780        1.4024513474       21.3123383313
Li               4.8580444100        2.8048062367       23.0541440153
Li               0.0000000100        0.0000539289       22.0560110234
Li               2.4290279286        1.4024250292       24.1578085527
Li               4.8580445000        2.8048434549       20.0534986211
Li               0.0000000000       -0.0000775706       31.1537164937
Li               2.4290367064        1.4023899155       27.0492845556
Li               4.8580444100        2.8047430723       29.1507843709
Li              -0.0000000100       -0.0000153871       28.1530924573
Li               2.4290373249        1.4023691371       29.8944428803
Li               4.8580444200        2.8047694956       26.1204645578
Li               2.4290127881        4.2071827079       25.0865731418
Li               4.8580443900        5.6096168729       21.3123300649
Li               7.2870860522        7.0120179976       23.0541375367
Li               2.4290102741        4.2072239072       22.0559970764
Li               4.8580444100        5.6095893924       24.1577872411
Li               7.2870368212        7.0120432571       20.0535115303
Li               2.4290247437        4.2071775561       31.1537087308
Li               4.8580444000        5.6095460661       27.0492638784
Li               7.2870834480        7.0119468621       29.1507808472
Li               2.4290159279        4.2071470506       28.1530840170
Li               4.8580444000        5.6095224783       29.8944072418
Li               7.2870875810        7.0119786960       26.1204550551
Li               4.8580444000        0.0000117176       25.0865863270
Li               7.2870638420        1.4024513274       21.3123384813
Li               9.7160888200        2.8048280033       23.0541328831
Li               4.8580443900        0.0000402742       22.0560158108
Li               7.2870608914        1.4024250292       24.1578086327
Li               9.7160887400        2.8048087143       20.0534981446
Li               4.8580444000       -0.0000770608       31.1537209660
Li               7.2870521136        1.4023899155       27.0492846056
Li               9.7160888300        2.8047593563       29.1507709061
Li               4.8580444000       -0.0000216272       28.1530916459
Li               7.2870514951        1.4023691271       29.8944429203
Li               9.7160888200        2.8047970018       26.1204439142
Li               7.2870760220        4.2071827179       25.0865731418
Li               9.7160888400        5.6096216916       21.3122907802
Li              12.1450915978        7.0120180076       23.0541375467
Li               7.2870785359        4.2072239272       22.0559970864
Li               9.7160888300        5.6095935519       24.1577633651
Li              12.1451408288        7.0120433671       20.0535115403
Li               7.2870640663        4.2071775661       31.1537087208
Li               9.7160888300        5.6095646091       27.0492378236
Li              12.1450942021        7.0119468621       29.1507808472
Li               7.2870728921        4.2071470506       28.1530840070
Li               9.7160888300        5.6095363681       29.8943804323
Li              12.1450900790        7.0119787060       26.1204550551
End final coordinates

     Writing all to output data dir ./Li/Lithium.save/ :
     XML data file

     General routines

     Parallel routines

     PAW routines

     Environ routines

   This run was terminated on:  18:29:24   2Jan2025

   JOB DONE.